 [Molden Format]
 [N_FREQ]
                   12
 [FREQ]
   972.20632930546788     
   1022.5060229235846     
   1213.4146391674051     
   1312.3720484543701     
   1418.3990190653903     
   1537.8445387650447     
   1679.1758883485122     
   1882.3177479876074     
   3330.3425752455423     
   3464.1861159581726     
   3679.9945115083178     
   3764.2119366607681     
 [INT]
   183.07808212383662     
   2.2105453797095782     
   3.7838860572822937E-003
   29.918951516384436     
   71.710136008250728     
   5.6011761086388868E-002
  0.13216255437536450     
   24.523991308515356     
   1.5081501247440783     
   5.0178269494220586     
   102.83546378309315     
   173.97984329071235     
 [NATOM]
                    6
 [FR-COORD]
 C  0.29401933E-09  0.56555880E-05  0.66559956E-01
 N  0.15911050E-08  0.16666393E-05  0.24720614E+01
 H  0.17778643E+01 -0.82641729E-06 -0.94410438E+00
 H  0.16262566E+01 -0.29770140E-05  0.34731432E+01
 H -0.16262566E+01  0.39371606E-06  0.34731432E+01
 H -0.17778643E+01 -0.39125121E-05 -0.94410438E+00
 [FR-NORM-COORD]
 vibration                     1
   4.2415591191193909E-004   3.9870721522411307E-002   2.3171454922229888E-004
   4.9177981077901003E-004 -0.12461812803869904       -1.5382634049258584E-004
  -2.8934398634397045E-003   1.3225167723525475E-002  -5.4531863900452691E-003
  -3.2816100840740124E-003  0.61514453316432005        5.6124072447718111E-003
  -3.1829448219672200E-003  0.61531696015088500       -6.1296735782070564E-003
  -2.5253179526374785E-003   1.3067408810020166E-002   5.3487843377173945E-003
 vibration                     2
  -3.5442143317661400E-002   1.0288171950088444E-003  -1.5363790229606132E-005
  -3.3752822078388443E-002  -1.7029135340324536E-003  -3.2139378477137114E-005
  0.20681714398159562       -1.9087461049020525E-003  0.42914599397665520     
  0.23881386238129934        7.6002507505829450E-003 -0.44384528933744838     
  0.23881136526583327        7.8962103900375013E-003  0.44383705144122343     
  0.20653468938660430       -2.1767880073940288E-003 -0.42850826628037741     
 vibration                     3
  -5.0067410683832028E-005  -1.1763450022561123E-003  -5.3328455962082109E-007
   2.7857022023245167E-005   1.6539780849701748E-004   5.9062446325661977E-007
   8.6158786550606721E-005 -0.47024474152092982        2.7284000118090980E-004
   1.8913867895561540E-005  0.52041674891038814       -2.6714526084424873E-005
   1.8791107831360649E-005 -0.51898933733992181        2.4992789820872079E-005
   8.5225097924650347E-005  0.48052577327857643       -2.7297488019418907E-004
 vibration                     4
  -3.8749688913005808E-004 -0.14015569281578269       -2.2724336243590005E-004
   1.3885188068224965E-004   2.2095615455193882E-002   1.5255113048249835E-004
   1.0186047853432154E-003  0.61271891671891365        2.4831826751043613E-003
   4.5227019099726006E-004   6.7809698696591134E-002  -5.4746200902748370E-004
   4.9312635051477973E-004   7.6585483283767783E-002   1.1862503110775956E-003
   7.2060108148709319E-004  0.60469150396576365       -2.5358220319154469E-003
 vibration                     5
  0.12239653344782300       -2.9795567697324442E-004  -3.5923737678432019E-005
 -0.10905006239898435        2.1106945913444616E-006  -2.1659195222289717E-005
  -9.0350698687584344E-002   1.2171752258797633E-003 -0.40530388957136831     
  0.11952897646970671        5.5756060177469314E-004 -0.37047893460622427     
  0.11948052687386029        2.3147102298480408E-004  0.37040617831802852     
  -9.0833596189128937E-002   1.5121736198960012E-003  0.40610532409460515     
 vibration                     6
  -6.1458518230372250E-005  -8.2887905774641646E-005   6.5301299325628295E-002
   8.0239702229052484E-005   5.6200757301236685E-005 -0.10379261085644471     
  0.25001544855715480        2.9376840835349107E-004  0.53773437622818221     
   4.5098721172833096E-002  -1.9070658709057051E-004 -0.20500908836947926     
  -4.5478697953898681E-002  -1.8739299702813395E-004 -0.20581712976819500     
 -0.25001857425647572        2.9039026247222632E-004  0.53769134837957766     
 vibration                     7
  -3.6863560917544687E-005   1.4028452956664177E-004 -0.13913935699281268     
   3.6442135493864468E-005  -1.1096555714859944E-004   2.0838299550576946E-002
  0.22238130561725103       -4.7076568371952278E-004  0.22286285404947270     
 -0.25789101357077765        4.0721559854523990E-004  0.46094285997101792     
  0.25776034952136206        4.0046692474435996E-004  0.46048777853782613     
 -0.22231805325837514       -4.6546638136695347E-004  0.22288036115292145     
 vibration                     8
   2.1422147960569858E-005  -1.0945474062988633E-004  0.14774236218885059     
  -3.1250565968734370E-005   9.9577172491258377E-005 -0.15315306306530257     
 -0.17246926286838912        3.4601587068867174E-004  -9.9384538151415527E-002
 -0.28817932966307924       -3.8612005556979578E-004  0.28364104969868603     
  0.28834011939065257       -3.8430836063036859E-004  0.28383398311854674     
  0.17248760960462650        3.4411127753324278E-004  -9.9271187786830944E-002
 vibration                     9
  -1.1336399816585823E-004   2.2036394688989848E-006  -6.7213862509074865E-002
  -2.4270363619536248E-005  -3.2871457003245830E-006   7.5618196382668300E-003
 -0.59459027416603638       -4.6676940617478197E-006  0.33746923084821789     
   1.6541650200869316E-002   1.3837047578368681E-005   9.9275746542852941E-003
  -1.6161888786958532E-002   1.4127969383155480E-005   9.5994494724331251E-003
  0.59589753939017898       -3.8629267975289175E-006  0.33824112026242764     
 vibration                    10
  -9.9479267235535726E-002  -1.6291188411288321E-005   8.0648191862461537E-005
   3.1616433996923200E-003  -7.9954194605686475E-006   1.1064507297651418E-005
  0.57979142932512873        7.9604801530567740E-005 -0.31924364707716196     
  -8.9827122326775425E-003   7.0791569378230864E-005   2.3949794931026566E-003
  -8.7576083881402769E-003   5.9281866754724970E-005  -2.6290878677595482E-003
  0.57850250285015103        9.5389310279616200E-005  0.31836375710790277     
 vibration                    11
  -2.3243599099839990E-005   1.2657482151478213E-005   8.2768914996791051E-003
  -9.0132873241397402E-005  -1.3806091116709709E-005  -5.8287833778399849E-002
   1.0382018092016564E-002  -3.7249829200905078E-005  -1.8567409599544312E-003
  0.58735432144386257        5.7307203781553100E-005  0.35786620282985993     
 -0.58607011798867104        5.6176363135513500E-005  0.35702352829050765     
  -1.0137126283499883E-002  -3.5117543459731775E-005  -1.7129405140433587E-003
 vibration                    12
  -1.2998877625131895E-003  -2.6438677866212550E-005   1.4751617783530881E-005
  -8.2086223528028565E-002  -1.2068898163191077E-005   6.9616990020382872E-005
   7.4141916232684946E-003   1.2740424694164922E-004  -3.3980050544558465E-003
  0.57016371727634818        1.1398965625535089E-004  0.35084056683509007     
  0.57145745837561868        8.7453238972559410E-005 -0.35175085752159130     
   6.9769153125650296E-003   1.5364316415835389E-004   3.1653679114357737E-003
 [RMASS]
   1.2909116697423977     
   1.0375636650729110     
   1.0078407585625289     
   1.2958602274844704     
   1.4803805844218190     
   1.2394394960668969     
   1.2895196665452078     
   2.2137841264573113     
   1.0613182497289899     
   1.1310024025696872     
   1.0552082566061154     
   1.1045657269466322     
