           6
  t=         0.00000    9    3
C       0.013292646     -0.015693152      0.035100049
N      -0.005883350     -0.007144305      1.304558289
H       0.903248771      0.114556881     -0.467164516
H       0.796670280      0.025750303      1.772153502
H      -0.809086206      0.093697916      1.974893521
H      -0.967360792      0.052116033     -0.553438245
           6
  t=         0.50000    9    3
C       0.013028423     -0.014512678      0.033321698
N      -0.010463555     -0.008263268      1.303363233
H       0.892965598      0.114404617     -0.459439927
H       0.843364233      0.027925919      1.824122158
H      -0.778723853      0.099938944      1.943182984
H      -0.967347896      0.045341985     -0.543642900
           6
  t=         1.00000    9    3
C       0.011856880     -0.013391970      0.028162145
N      -0.014734238     -0.009430768      1.305364189
H       0.887904056      0.114894877     -0.454761885
H       0.889166696      0.030552931      1.875200568
H      -0.750275850      0.106273509      1.909007574
H      -0.963248087      0.038766482     -0.531593020
           6
  t=         1.50000    9    3
C       0.009706297     -0.012341595      0.019832393
N      -0.018147540     -0.010635432      1.310594575
H       0.890024094      0.116221158     -0.453845976
H       0.929704462      0.033115085      1.920691406
H      -0.727892029      0.113048449      1.874827410
H      -0.955256474      0.032333274     -0.517312484
           6
  t=         2.00000    9    3
C       0.006771165     -0.011377339      0.008746164
N      -0.020101465     -0.011963211      1.318490676
H       0.898710191      0.118284411     -0.457046571
H       0.962004547      0.035685691      1.959296874
H      -0.717460336      0.121330346      1.846476320
H      -0.944576711      0.026383687     -0.502076633
           6
  t=         2.50000    9    3
C       0.003347461     -0.010520125     -0.004665290
N      -0.020141333     -0.013500567      1.328505619
H       0.912870171      0.120859466     -0.464133278
H       0.984514310      0.038446996      1.990063674
H      -0.724267455      0.132134758      1.828427125
H      -0.933118944      0.021395556     -0.487171770
           6
  t=         3.00000    9    3
C      -0.000137386     -0.009801512     -0.019923959
N      -0.018156715     -0.015295332      1.340210711
H       0.930781674      0.123537341     -0.474647647
H       0.996702397      0.041816258      2.012566953
H      -0.750110735      0.145747464      1.822300414
H      -0.923455750      0.018115180     -0.473987275
           6
  t=         3.50000    9    3
C      -0.003077731     -0.009282041     -0.036382011
N      -0.014580179     -0.017320139      1.353203609
H       0.950311994      0.125644831     -0.488470443
H       0.999468543      0.046685446      2.027184760
H      -0.791654594      0.161003874      1.826856587
H      -0.918890821      0.017828981     -0.463904118
           6
  t=         4.00000   12    3
C      -0.004603512     -0.009027936     -0.052754504
N      -0.010568580     -0.019490647      1.366483662
H       0.969424541      0.126753408     -0.506984835
H       0.997048749      0.053950509      2.036485802
H      -0.841271234      0.176073917      1.840932549
H      -0.923537287      0.021516277     -0.458340974
           6
  t=         4.50000   12    3
C      -0.005602415     -0.008898427     -0.068515184
N      -0.005793116     -0.021649109      1.379750339
H       0.990322611      0.127668795     -0.525460963
H       0.987989682      0.061358378      2.039943802
H      -0.895082514      0.191137309      1.857950879
H      -0.936022234      0.026576834     -0.457014299
           6
  t=         5.00000   13    4
C      -0.004701344     -0.008823139     -0.084252013
N      -0.001770842     -0.023822606      1.393064012
H       1.006749309      0.127868698     -0.544519586
H       0.977945536      0.069774021      2.040735735
H      -0.945713673      0.205552788      1.878756345
H      -0.958388446      0.032847498     -0.457163148
           6
  t=         5.50000   13    4
C      -0.003100112     -0.008636047     -0.099113666
N       0.002126722     -0.025756173      1.406040536
H       1.019747101      0.126430291     -0.561419354
H       0.962809192      0.077714545      2.037398831
H      -0.990264773      0.217403341      1.898089290
H      -0.984917591      0.039131699     -0.459605561
           6
  t=         6.00000   13    4
C      -0.000804402     -0.008490699     -0.113118144
N       0.005959590     -0.027749743      1.418209008
H       1.028723924      0.123452223     -0.578376954
H       0.943015474      0.087854025      2.034736980
H      -1.030558784      0.227949096      1.920649855
H      -1.014395607      0.047392144     -0.464871673
           6
  t=         6.50000   13    4
C       0.002491533     -0.008371269     -0.126439217
N       0.008985668     -0.029775677      1.429576590
H       1.031929057      0.119666372     -0.595238227
H       0.922057168      0.099795950      2.033465265
H      -1.062906899      0.237309509      1.945257219
H      -1.045582932      0.056601527     -0.470680402
           6
  t=         7.00000   13    4
C       0.006660599     -0.008244419     -0.139169460
N       0.010970319     -0.031811164      1.440172474
H       1.029095038      0.115338274     -0.611774615
H       0.901390869      0.113291588      2.033998162
H      -1.085854396      0.245426042      1.970774781
H      -1.076349999      0.066087725     -0.475841481
           6
  t=         7.50000   13    4
C       0.011480326     -0.008088882     -0.151322862
N       0.011815128     -0.033852002      1.449966572
H       1.020545614      0.110667696     -0.627919465
H       0.882072594      0.128288926      2.036924893
H      -1.098804320      0.252294910      1.996422321
H      -1.104657199      0.075395147     -0.479645979
           6
  t=         8.00000   13    4
C       0.016693623     -0.007894526     -0.162865032
N       0.011491343     -0.035906696      1.458898270
H       1.007053338      0.105861326     -0.643759502
H       0.864925861      0.144851259      2.042916772
H      -1.101627230      0.257977455      2.021656415
H      -1.128769424      0.084189982     -0.481702329
           6
  t=         8.50000   13    4
C       0.022020703     -0.007660571     -0.173731047
N       0.010027408     -0.037991680      1.466897571
H       0.989799465      0.101151228     -0.659520692
H       0.850468472      0.163094130      2.052611538
H      -1.094506865      0.262599159      2.046108632
H      -1.147265822      0.092218221     -0.481854359
           6
  t=         9.00000   13    4
C       0.027160507     -0.007394103     -0.183838950
N       0.007510613     -0.040126792      1.473901182
H       0.970336117      0.096796013     -0.675548720
H       0.838796383      0.183122265      2.066500104
H      -1.077875828      0.266350939      2.069560487
H      -1.158990041      0.099285616     -0.480125214
           6
  t=         9.50000   13    4
C       0.031793860     -0.007108440     -0.193100954
N       0.004091133     -0.042331748      1.479862488
H       0.950502231      0.093070137     -0.692271511
H       0.829509184      0.204972256      2.084846359
H      -1.052403818      0.269496254      2.091943997
H      -1.162997133      0.105250156     -0.476680480
           6
  t=        10.00000   13    4
C       0.035591226     -0.006821710     -0.201435256
N      -0.000010930     -0.044625559      1.484753371
H       0.932263149      0.090235423     -0.710116826
H       0.821694074      0.228583635      2.107671219
H      -1.019052943      0.272388862      2.113379166
H      -1.158511984      0.110036715     -0.471816644
           6
  t=        10.50000   12    3
C       0.038203164     -0.006554742     -0.208784639
N      -0.004459458     -0.047033605      1.488556353
H       0.917515670      0.088446316     -0.729334436
H       0.813791945      0.253832513      2.134799333
H      -0.979370287      0.275521625      2.134329123
H      -1.144834626      0.113722561     -0.466010139
           6
  t=        11.00000   12    3
C       0.039528230     -0.005975842     -0.215842996
N      -0.009212259     -0.049379782      1.492526386
H       0.907667380      0.085780501     -0.750618400
H       0.803861615      0.279081283      2.161035582
H      -0.932448254      0.276963400      2.151149729
H      -1.121717320      0.115402406     -0.458902371
           6
  t=        11.50000   12    3
C       0.039830738     -0.005293544     -0.221993554
N      -0.014491428     -0.051633369      1.496035497
H       0.902570163      0.084381145     -0.773698755
H       0.794639905      0.303524045      2.187591815
H      -0.878468703      0.277980056      2.164071723
H      -1.091628284      0.114529288     -0.450824377
           6
  t=        12.00000    9    3
C       0.039121312     -0.004542962     -0.227219303
N      -0.020002492     -0.053838737      1.499007985
H       0.902022477      0.084437111     -0.797949875
H       0.785263426      0.326885708      2.214389219
H      -0.819575886      0.279519264      2.174142836
H      -1.055576310      0.111276384     -0.442521414
           6
  t=        12.50000    9    3
C       0.037267132     -0.003739346     -0.232099698
N      -0.025127094     -0.056048268      1.502004207
H       0.906180052      0.085717142     -0.822533778
H       0.772702556      0.348441157      2.239229224
H      -0.759631552      0.282558231      2.182180718
H      -1.013835941      0.106532217     -0.434336917
           6
  t=        13.00000    9    3
C       0.034918162     -0.002915483     -0.236116383
N      -0.029935832     -0.058293699      1.504437968
H       0.912710872      0.088661031     -0.846204188
H       0.759169566      0.367703261      2.262975185
H      -0.700096282      0.288437332      2.189564022
H      -0.971584979      0.099835103     -0.427786316
           6
  t=        13.50000    9    3
C       0.032542159     -0.002124394     -0.239289211
N      -0.034141207     -0.060643829      1.506308316
H       0.920167359      0.093519237     -0.867842631
H       0.744515923      0.383867170      2.284612237
H      -0.644230993      0.298819189      2.197714666
H      -0.933530500      0.091664098     -0.424145515
           6
  t=        14.00000    9    3
C       0.030685297     -0.001449308     -0.241616390
N      -0.037473992     -0.063172305      1.507695844
H       0.927176423      0.100754112     -0.886564069
H       0.728806853      0.395943924      2.302593348
H      -0.595389577      0.315509850      2.207612973
H      -0.905254706      0.082753991     -0.424873962
           6
  t=        14.50000    9    3
C       0.029872070     -0.001000883     -0.243091507
N      -0.039744574     -0.065932563      1.508828387
H       0.932530343      0.110974671     -0.901846900
H       0.712600268      0.402968956      2.314718276
H      -0.556644814      0.339844065      2.219041982
H      -0.891914608      0.074185650     -0.431318030
           6
  t=        15.00000    9    3
C       0.030448501     -0.000879230     -0.243741159
N      -0.040913982     -0.068937061      1.510019290
H       0.935250302      0.124594089     -0.913471784
H       0.697123514      0.404479139      2.318772435
H      -0.530167681      0.371999735      2.230630037
H      -0.896249250      0.067196218     -0.444147877
           6
  t=        15.50000    9    3
C       0.032440853     -0.001127843     -0.243651891
N      -0.041089691     -0.072151218      1.511544947
H       0.934665724      0.141623222     -0.921360006
H       0.683879086      0.400584572      2.313374032
H      -0.516696801      0.411027924      2.240510770
H      -0.917171372      0.062651054     -0.463003895
           6
  t=        16.00000    9    3
C       0.035579666     -0.001738665     -0.242967327
N      -0.040461910     -0.075494599      1.513625772
H       0.930432624      0.161770769     -0.925540294
H       0.674227910      0.391707576      2.297935464
H      -0.515762910      0.455185215      2.246675596
H      -0.950315918      0.060949068     -0.486613554
           6
  t=        16.50000    9    3
C       0.039467668     -0.002675180     -0.241865082
N      -0.039267931     -0.078856463      1.516410305
H       0.922519327      0.184404337     -0.926142508
H       0.669311537      0.378732366      2.272427458
H      -0.526124796      0.501985955      2.247463508
H      -0.990006723      0.062350603     -0.513105756
           6
  t=        17.00000    9    3
C       0.043709511     -0.003840404     -0.240526740
N      -0.037830488     -0.082177656      1.519677197
H       0.911443566      0.207843633     -0.923006643
H       0.669703469      0.364455948      2.238774150
H      -0.544959866      0.548143139      2.243531526
H      -1.030966066      0.067049263     -0.539984059
           6
  t=        17.50000    9    3
C       0.047794443     -0.005075273     -0.239003602
N      -0.036413301     -0.085546763      1.522649005
H       0.898533931      0.230725136     -0.915361809
H       0.674402918      0.351828622      2.202566376
H      -0.567293751      0.592953338      2.237721086
H      -1.068750489      0.073498611     -0.565038767
           6
  t=        18.00000    9    3
C       0.051343649     -0.006336616     -0.237284627
N      -0.035159308     -0.088975616      1.525049310
H       0.884860843      0.253119721     -0.903371474
H       0.683414814      0.341685185      2.166561211
H      -0.590700041      0.636212147      2.230066893
H      -1.100365225      0.080647723     -0.587188945
           6
  t=        18.50000    9    3
C       0.054103995     -0.007621157     -0.235335900
N      -0.034194743     -0.092449501      1.526763123
H       0.871451991      0.275274658     -0.887626132
H       0.697218914      0.334652026      2.132287446
H      -0.613739871      0.677335008      2.220119879
H      -1.123988625      0.087964057     -0.605729983
           6
  t=        19.00000    9    3
C       0.055900564     -0.008941187     -0.233102631
N      -0.033624964     -0.095943617      1.527728506
H       0.859340533      0.297497888     -0.868903939
H       0.716247732      0.331217559      2.100647128
H      -0.635352004      0.715662433      2.207491297
H      -1.138601012      0.095112504     -0.620188787
           6
  t=        19.50000    9    3
C       0.056616796     -0.010317279     -0.230520041
N      -0.033522180     -0.099418773      1.527924072
H       0.849498643      0.320137562     -0.848041511
H       0.740592787      0.331617908      2.071968644
H      -0.654683015      0.750550165      2.191911331
H      -1.143728346      0.101853456     -0.630261476
           6
  t=        20.00000    9    3
C       0.056188137     -0.011772226     -0.227528523
N      -0.033918440     -0.102817505      1.527366324
H       0.842727866      0.343538613     -0.825801141
H       0.769853938      0.335775388      2.046057343
H      -0.671015335      0.781390245      2.173222072
H      -1.139275666      0.108000631     -0.635772220
           6
  t=        20.50000    9    3
C       0.054604266     -0.013324012     -0.224087857
N      -0.034808403     -0.106065575      1.526101963
H       0.839536211      0.367971550     -0.802742288
H       0.803155589      0.343322894      2.022334038
H      -0.683732920      0.807614033      2.151362866
H      -1.125442753      0.113401848     -0.636649508
           6
  t=        21.00000   12    3
C       0.051932582     -0.014961119     -0.220273371
N      -0.036143639     -0.109013813      1.524349597
H       0.840088064      0.393595686     -0.779074000
H       0.839436978      0.352882339      1.999316752
H      -0.692788645      0.828434243      2.125811196
H      -1.102855761      0.117853455     -0.632820271
           6
  t=        21.50000   12    3
C       0.048379753     -0.016560002     -0.216578543
N      -0.037728973     -0.111248785      1.522893242
H       0.844330698      0.420088665     -0.754786450
H       0.876951270      0.359919753      1.973606900
H      -0.699824059      0.842031924      2.094745622
H      -1.073246205      0.120815305     -0.624091941
           6
  t=        22.00000   12    3
C       0.044042589     -0.018222504     -0.212447401
N      -0.039727930     -0.113099242      1.520898642
H       0.851221058      0.447318669     -0.729649245
H       0.915110006      0.368676800      1.948050579
H      -0.701791304      0.849654813      2.060871352
H      -1.036910999      0.122710191     -0.611274656
           6
  t=        22.50000   12    3
C       0.039202635     -0.019905385     -0.207891316
N      -0.042129084     -0.114504719      1.518402863
H       0.859750383      0.474764454     -0.703261173
H       0.953053336      0.378654265      1.922203865
H      -0.698324585      0.851005490      2.024465244
H      -0.995858417      0.123501038     -0.594982180
           6
  t=        23.00000   12    3
C       0.034230703     -0.021559558     -0.202893666
N      -0.044924053     -0.115416168      1.515433137
H       0.868765713      0.501761418     -0.675217010
H       0.990075719      0.389379715      1.895729506
H      -0.689168190      0.845894174      1.985871219
H      -0.953017326      0.123248693     -0.576202690
           6
  t=        23.50000    9    3
C       0.029587413     -0.023141313     -0.197391272
N      -0.048101066     -0.115799906      1.512004730
H       0.877114824      0.527592039     -0.645214004
H       1.025614092      0.400393879      1.868400023
H      -0.674222736      0.834304540      1.945512144
H      -0.912419903      0.122157828     -0.556398680
           6
  t=        24.00000    9    3
C       0.025342576     -0.024620894     -0.191451223
N      -0.051025687     -0.115662102      1.508370942
H       0.884766517      0.552252313     -0.611802113
H       1.056190700      0.408664916      1.839500100
H      -0.656181342      0.818596983      1.901935108
H      -0.877510343      0.120635272     -0.537572627
           6
  t=        24.50000    9    3
C       0.022527200     -0.025983934     -0.184725577
N      -0.054295770     -0.115004148      1.504249081
H       0.889781922      0.574435832     -0.576393561
H       1.084634002      0.416452665      1.809616696
H      -0.632747326      0.797226096      1.857875826
H      -0.855444190      0.119121316     -0.521850039
           6
  t=        25.00000    9    3
C       0.021572910     -0.027213407     -0.177067690
N      -0.057857631     -0.113886653      1.499595526
H       0.891486627      0.593684588     -0.539286240
H       1.110738074      0.423368434      1.778811326
H      -0.604641292      0.771366874      1.814259418
H      -0.850505695      0.117927050     -0.511059605
           6
  t=        25.50000    9    3
C       0.022618767     -0.028269740     -0.168407964
N      -0.061612251     -0.112432555      1.494344858
H       0.889486362      0.609753282     -0.500973384
H       1.134318100      0.428997106      1.747212720
H      -0.573148394      0.743077361      1.772265186
H      -0.863862199      0.116891794     -0.505935867
           6
  t=        26.00000    9    3
C       0.025461579     -0.029089819     -0.158781406
N      -0.065404183     -0.110851267      1.488410780
H       0.883683549      0.622641584     -0.462114018
H       1.155198340      0.432913089      1.714998003
H      -0.540280193      0.715629080      1.733373049
H      -0.892969278      0.115328149     -0.505860992
           6
  t=        26.50000    9    3
C       0.029663106     -0.029614540     -0.148300383
N      -0.069024792     -0.109449694      1.481695276
H       0.874282212      0.632610619     -0.423499916
H       1.173214063      0.434709786      1.682355298
H      -0.508790785      0.693641757      1.699326521
H      -0.932792921      0.112322345     -0.509275050
           6
  t=        27.00000    9    3
C       0.034723332     -0.029823879     -0.137112533
N      -0.072248538     -0.108593044      1.474116758
H       0.861789811      0.640171996     -0.386026916
H       1.188222423      0.434038929      1.649409948
H      -0.481808495      0.682505957      1.671919857
H      -0.977749571      0.107156371     -0.514310244
           6
  t=        27.50000    9    3
C       0.040217127     -0.029756900     -0.125400330
N      -0.074909469     -0.108576834      1.465674637
H       0.847028810      0.646014332     -0.350690288
H       1.200077908      0.430645420      1.616065542
H      -0.462015157      0.686556677      1.652589188
H      -1.023078167      0.099632864     -0.519130213
           6
  t=        28.00000    9    3
C       0.045865415     -0.029511918     -0.113489430
N      -0.076943352     -0.109432921      1.456600337
H       0.831209816      0.650788399     -0.318656812
H       1.208227086      0.424239411      1.581714302
H      -0.451114938      0.706392839      1.641885312
H      -1.065301296      0.090405248     -0.521849111
           6
  t=        28.50000    9    3
C       0.051356195     -0.029197100     -0.101963053
N      -0.078154483     -0.110853929      1.447522743
H       0.815925385      0.655166547     -0.291182309
H       1.210160656      0.413560642      1.546108152
H      -0.450005932      0.738331350      1.638233415
H      -1.101608340      0.080761634     -0.521181890
           6
  t=        29.00000    9    3
C       0.056242736     -0.028875744     -0.091141120
N      -0.078374719     -0.112454209      1.438877765
H       0.802494384      0.660395974     -0.269060910
H       1.203654317      0.397277156      1.510612340
H      -0.457110209      0.777624511      1.638973021
H      -1.129688913      0.070929832     -0.517286630
           6
  t=        29.50000    9    3
C       0.060237841     -0.028600510     -0.081163307
N      -0.077650285     -0.113864207      1.430887309
H       0.791884942      0.667585846     -0.252870266
H       1.187964856      0.374927687      1.476440499
H      -0.469904836      0.819200948      1.642224711
H      -1.148228953      0.060825620     -0.510340032
           6
  t=        30.00000    9    3
C       0.063196950     -0.028403218     -0.072138928
N      -0.076088966     -0.114783609      1.423707835
H       0.784643005      0.677408661     -0.243038507
H       1.162898230      0.346448928      1.444502218
H      -0.486161321      0.858683331      1.646711855
H      -1.156590031      0.050423320     -0.500419261
           6
  t=        30.50000    9    3
C       0.065090227     -0.028281164     -0.064167727
N      -0.073810384     -0.115006971      1.417454151
H       0.780790204      0.689989033     -0.239809118
H       1.128566578      0.312016479      1.415494916
H      -0.504153451      0.892845679      1.651620195
H      -1.154614795      0.039762031     -0.487571532
           6
  t=        31.00000    9    3
C       0.065989919     -0.028194116     -0.057337145
N      -0.070951627     -0.114416672      1.412203842
H       0.779840045      0.704886856     -0.243210322
H       1.085455359      0.272053083      1.389897535
H      -0.522576726      0.919505174      1.656499365
H      -1.142562207      0.028928601     -0.471834044
           6
  t=        31.50000    9    3
C       0.066061759     -0.028071555     -0.051710948
N      -0.067697368     -0.112968007      1.407998216
H       0.780930499      0.721192106     -0.253037154
H       1.034693772      0.227309786      1.367888914
H      -0.540410981      0.937248862      1.661181396
H      -1.121127031      0.018034163     -0.453237354
           6
  t=        32.00000    9    3
C       0.065557757     -0.027825474     -0.047308435
N      -0.064326119     -0.110677830      1.404839049
H       0.783002047      0.737707693     -0.268844166
H       0.978562321      0.178964359      1.349226890
H      -0.556787018      0.945198207      1.665714632
H      -1.091530335      0.007162873     -0.431827938
           6
  t=        32.50000    9    3
C       0.064799737     -0.027361092     -0.044082232
N      -0.061259406     -0.107614655      1.402684667
H       0.784945872      0.753168215     -0.289937054
H       0.921224648      0.128628158      1.333199308
H      -0.570873300      0.942879718      1.670285755
H      -1.055633586     -0.003734319     -0.407759684
           6
  t=        33.00000    9    3
C       0.064136766     -0.026578929     -0.041930028
N      -0.059080625     -0.103881672      1.401466912
H       0.785712675      0.766414551     -0.315365741
H       0.869365310      0.078118034      1.318801058
H      -0.581832125      0.930194727      1.675105449
H      -1.015960100     -0.014967214     -0.381459456
           6
  t=        33.50000    9    3
C       0.063899662     -0.025370762     -0.040763532
N      -0.058485340     -0.099591333      1.401144397
H       0.784425197      0.776416116     -0.343964744
H       0.831909065      0.029000018      1.305006216
H      -0.588910571      0.907450069      1.680331621
H      -0.975584885     -0.027104244     -0.353700912
           6
  t=        34.00000    9    3
C       0.064390991     -0.023612048     -0.040600309
N      -0.060102923     -0.094859591      1.401747235
H       0.780446554      0.782071124     -0.374374066
H       0.817627326     -0.017830619      1.290958516
H      -0.591669320      0.875641911      1.686147953
H      -0.937939668     -0.040806862     -0.325380739
           6
  t=        34.50000    9    3
C       0.065837225     -0.021205199     -0.041617306
N      -0.064168150     -0.089855862      1.403392359
H       0.773768150      0.782489309     -0.405141412
H       0.830640321     -0.061980853      1.276385453
H      -0.590166739      0.836860352      1.692637994
H      -0.906512218     -0.056475976     -0.297280079
           6
  t=        35.00000    8    2
C       0.068495885     -0.018302850     -0.043837461
N      -0.070178144     -0.084411441      1.406151854
H       0.764435609      0.778408008     -0.436042975
H       0.865442559     -0.105344680      1.262239894
H      -0.584877931      0.790956401      1.699807992
H      -0.885420977     -0.073332593     -0.271310342
           6
  t=        35.50000    8    2
C       0.071965519     -0.014459740     -0.046807881
N      -0.077395568     -0.078399466      1.409515585
H       0.751745963      0.770681778     -0.469104297
H       0.916530668     -0.153213096      1.256090650
H      -0.574739303      0.739445817      1.708248464
H      -0.874987916     -0.095520395     -0.251909875
           6
  t=        36.00000    9    3
C       0.076690149     -0.009764310     -0.049557785
N      -0.085343386     -0.072265694      1.412631004
H       0.736730205      0.759470248     -0.501756111
H       0.976307987     -0.203556063      1.252362417
H      -0.561383798      0.689102909      1.721285366
H      -0.878929514     -0.124756758     -0.239111882
           6
  t=        36.50000    9    3
C       0.080648430     -0.005637058     -0.052043922
N      -0.090656460     -0.068279798      1.414944368
H       0.723847264      0.749178605     -0.526171567
H       1.019629918     -0.241573548      1.258103407
H      -0.552293968      0.658842707      1.735087039
H      -0.891766418     -0.150712323     -0.236780577
           6
  t=        37.00000    9    3
C       0.084457545     -0.001020641     -0.055699286
N      -0.094241149     -0.065664217      1.417537012
H       0.709591482      0.737863841     -0.550793615
H       1.054708924     -0.277612635      1.277989716
H      -0.548062507      0.642611236      1.753477322
H      -0.912367853     -0.178436673     -0.242935226
           6
  t=        37.50000    9    3
C       0.087832634      0.003941014     -0.060549362
N      -0.095907832     -0.064613009      1.420327956
H       0.694615852      0.726323369     -0.575713927
H       1.079532242     -0.310870508      1.310888306
H      -0.550137178      0.642431761      1.777713576
H      -0.937169197     -0.207143255     -0.256179884
           6
  t=        38.00000    9    3
C       0.090504764      0.009070679     -0.066604992
N      -0.095688851     -0.065049932      1.423350019
H       0.679644423      0.715454649     -0.601037957
H       1.092878565     -0.340674461      1.355352901
H      -0.557866137      0.656823221      1.807491909
H      -0.962673531     -0.235870315     -0.274985834
           6
  t=        38.50000    9    3
C       0.092280597      0.014180402     -0.073860777
N      -0.093794434     -0.066686112      1.426748050
H       0.665396081      0.706149663     -0.626847423
H       1.094116795     -0.366470758      1.409597766
H      -0.568969102      0.681582299      1.841033337
H      -0.986025900     -0.263636017     -0.297783501
           6
  t=        39.00000    9    3
C       0.093069260      0.019093037     -0.082294180
N      -0.090530410     -0.069150271      1.430718932
H       0.652523310      0.699158984     -0.653136277
H       1.083187567     -0.387822523      1.471457646
H      -0.580711970      0.711591495      1.875914134
H      -1.005222202     -0.289559770     -0.322993861
           6
  t=        39.50000    9    3
C       0.092881454      0.023665162     -0.091856374
N      -0.086240369     -0.072087895      1.435440306
H       0.641581337      0.694949776     -0.679745781
H       1.060707794     -0.404449394      1.538420806
H      -0.590783259      0.742220450      1.909876087
H      -1.019099534     -0.312976760     -0.349055288
           6
  t=        40.00000    9    3
C       0.091800620      0.027812602     -0.102450718
N      -0.081277170     -0.075199354      1.441015084
H       0.633022682      0.693599412     -0.706349709
H       1.028038782     -0.416313810      1.607855552
H      -0.597546203      0.769868171      1.941186107
H      -1.027199232     -0.333561833     -0.374509813
           6
  t=        40.50000    9    3
C       0.089934188      0.031527196     -0.113926601
N      -0.075970871     -0.078247571      1.447453344
H       0.627176959      0.694794745     -0.732512009
H       0.987112169     -0.423691087      1.677430087
H      -0.599942680      0.791993434      1.968606224
H      -1.029533918     -0.351382174     -0.398157015
           6
  t=        41.00000    9    3
C       0.087379538      0.034866874     -0.126117056
N      -0.070599742     -0.081055258      1.454706384
H       0.624206896      0.697950298     -0.757747573
H       0.940108500     -0.427158932      1.745416190
H      -0.597364956      0.806956436      1.991205685
H      -1.026347683     -0.366787848     -0.419134435
           6
  t=        41.50000    9    3
C       0.084219831      0.037928602     -0.138888334
N      -0.065392729     -0.083491683      1.462715631
H       0.624101156      0.702352756     -0.781531442
H       0.889327983     -0.427569330      1.810694650
H      -0.589583014      0.813820832      2.008215780
H      -1.017968550     -0.380248207     -0.436857782
           6
  t=        42.00000    9    3
C       0.080528715      0.040824670     -0.152163536
N      -0.060548790     -0.085455415      1.471436169
H       0.626725735      0.707270832     -0.803293896
H       0.837235178     -0.426051312      1.872662942
H      -0.576693797      0.812201937      2.018974431
H      -1.004742647     -0.392264600     -0.450923730
           6
  t=        42.50000    9    3
C       0.076371028      0.043667878     -0.165922023
N      -0.056244988     -0.086865172      1.480835575
H       0.631888049      0.712026497     -0.822431831
H       0.786447549     -0.424003503      1.931186090
H      -0.559093879      0.802210381      2.022936314
H      -0.987010120     -0.403343423     -0.461050315
           6
  t=        43.00000    9    3
C       0.071803073      0.046562590     -0.180185623
N      -0.052623357     -0.087664163      1.490883905
H       0.639385997      0.716042258     -0.838344428
H       0.739527554     -0.423006259      1.986536912
H      -0.537482261      0.784479861      2.019734117
H      -0.965129243     -0.413992257     -0.467067908
           6
  t=        43.50000    9    3
C       0.066879475      0.049600463     -0.194996021
N      -0.049761703     -0.087838376      1.501545316
H       0.649026010      0.718864912     -0.850490540
H       0.698598957     -0.424628267      2.039217858
H      -0.512894847      0.760266051      2.009288239
H      -0.939563659     -0.424730929     -0.468946174
           6
  t=        44.00000    9    3
C       0.061667833      0.052861263     -0.210389860
N      -0.047642243     -0.087446393      1.512775733
H       0.660619372      0.720170886     -0.858454907
H       0.664950493     -0.430169275      2.089644356
H      -0.486773043      0.731621943      1.991963340
H      -0.911023942     -0.436124913     -0.466831752
           6
  t=        44.50000    9    3
C       0.056263853      0.056418371     -0.226380505
N      -0.046132968     -0.086654859      1.524520944
H       0.673972500      0.719759646     -0.861997303
H       0.638838715     -0.440439606      2.137826812
H      -0.461068014      0.701668613      1.968762348
H      -0.880595672     -0.448842719     -0.461065813
           6
  t=        45.00000    9    3
C       0.050796308      0.060345398     -0.242951459
N      -0.044989814     -0.085767705      1.536708800
H       0.688887436      0.717544816     -0.861074022
H       0.619577452     -0.455660614      2.183240013
H      -0.438332443      0.674891159      1.941487888
H      -0.849766372     -0.463715269     -0.452163473
           6
  t=        45.50000    9    3
C       0.045415376      0.064719347     -0.260058475
N      -0.043885376     -0.085223269      1.549246096
H       0.705180531      0.713544987     -0.855843307
H       0.605830466     -0.475488624      2.224939900
H      -0.421626241      0.657106997      1.912640439
H      -0.820293497     -0.481748702     -0.440754695
           6
  t=        46.00000    9    3
C       0.040263148      0.069615305     -0.277636416
N      -0.042477637     -0.085510804      1.562049075
H       0.722715541      0.707866813     -0.846661299
H       0.595965214     -0.499127454      2.261823817
H      -0.413915448      0.654404536      1.884721538
H      -0.793886175     -0.504030438     -0.427494056
           6
  t=        46.50000    9    3
C       0.035429486      0.075092572     -0.295601889
N      -0.040521708     -0.086979665      1.575108439
H       0.741458130      0.700660645     -0.834081751
H       0.588357589     -0.525485675      2.292893483
H      -0.416820369      0.670643145      1.859021770
H      -0.771738184     -0.531513640     -0.412983863
           6
  t=        47.00000    8    2
C       0.030862100      0.081229261     -0.313751787
N      -0.037983949     -0.089626029      1.588454084
H       0.761731327      0.691673855     -0.819069388
H       0.581706707     -0.553368981      2.317535239
H      -0.429264988      0.704728641      1.835127511
H      -0.753792525     -0.565029014     -0.398065860
           6
  t=        47.50000    8    2
C       0.026500760      0.087890491     -0.331969489
N      -0.034857816     -0.093294250      1.602249444
H       0.783000720      0.682046481     -0.802788420
H       0.574356386     -0.581952833      2.336526619
H      -0.448759261      0.754015558      1.811752675
H      -0.739722331     -0.604452332     -0.384726731
           6
  t=        48.00000    8    2
C       0.022281840      0.094848484     -0.350378151
N      -0.031449331     -0.097439569      1.616709185
H       0.805617165      0.672220731     -0.785078642
H       0.565800963     -0.609656692      2.348432535
H      -0.471384343      0.809294280      1.786780719
H      -0.728282160     -0.647453599     -0.371091243
           6
  t=        48.50000    8    2
C       0.018010349      0.101917046     -0.368866267
N      -0.027958860     -0.101637695      1.631827641
H       0.829841249      0.662415987     -0.766622197
H       0.555562038     -0.635638441      2.353602221
H      -0.493746263      0.864048190      1.759782594
H      -0.717542462     -0.692255976     -0.357646397
           6
  t=        49.00000    8    2
C       0.013501783      0.108892415     -0.387288238
N      -0.024512835     -0.105552169      1.647481229
H       0.855937626      0.652785586     -0.748017490
H       0.543285008     -0.659382277      2.352779157
H      -0.513531613      0.913453744      1.731271637
H      -0.705773170     -0.736953793     -0.345067110
           6
  t=        49.50000    8    2
C       0.008808717      0.115713870     -0.405360267
N      -0.021308963     -0.108798042      1.663495960
H       0.882859272      0.642575948     -0.730055919
H       0.529551012     -0.682103019      2.345794238
H      -0.529304331      0.953962089      1.701420320
H      -0.691823442     -0.780655390     -0.333527024
           6
  t=        50.00000    8    2
C       0.003889267      0.122213687     -0.423039231
N      -0.018417283     -0.111196929      1.679705029
H       0.910110040      0.631678653     -0.712734375
H       0.514612682     -0.704073661      2.333764690
H      -0.540312807      0.983655414      1.671252423
H      -0.674729518     -0.821543057     -0.323366052
           6
  t=        50.50000    8    2
C      -0.001255640      0.128260005     -0.440300438
N      -0.015907323     -0.112606509      1.695920253
H       0.937039583      0.619874394     -0.695984638
H       0.498950207     -0.725759096      2.318106917
H      -0.546062568      1.001301412      1.642002163
H      -0.653860718     -0.858107686     -0.314982375
           6
  t=        51.00000    8    2
C      -0.006579887      0.133745388     -0.457147688
N      -0.013869634     -0.112904186      1.711953923
H       0.962881804      0.606964421     -0.679698781
H       0.483301915     -0.747724241      2.300358275
H      -0.546097494      1.006028266      1.615057309
H      -0.628936343     -0.889137934     -0.308755699
           6
  t=        51.50000    8    2
C      -0.011734992      0.138393339     -0.473850631
N      -0.012695781     -0.111530637      1.727687701
H       0.986728670      0.594267662     -0.663310098
H       0.468925649     -0.770804391      2.279259470
H      -0.537825313      0.992688958      1.594684362
H      -0.601607231     -0.914449697     -0.303405016
           6
  t=        52.00000    8    2
C      -0.016924431      0.142367358     -0.490143697
N      -0.012124713     -0.108935985      1.742923647
H       1.007810123      0.580077488     -0.647240985
H       0.456080858     -0.795431904      2.258983522
H      -0.523520307      0.966314869      1.578719680
H      -0.570292925     -0.932627929     -0.300929182
           6
  t=        52.50000    8    2
C      -0.022059116      0.145645162     -0.506013503
N      -0.012157537     -0.105152770      1.757573606
H       1.025322889      0.564320594     -0.631529967
H       0.445105621     -0.821985606      2.240349832
H      -0.503443616      0.927666486      1.567740316
H      -0.535312403     -0.943263562     -0.301620587
           6
  t=        53.00000    8    2
C      -0.027042479      0.148212130     -0.521453330
N      -0.012747733     -0.100297544      1.771618076
H       1.038605967      0.547096640     -0.616276830
H       0.435919404     -0.850273127      2.223488074
H      -0.478128840      0.878104843      1.562121600
H      -0.497186764     -0.946216147     -0.305693509
           6
  t=        53.50000    8    2
C      -0.031781258      0.150063634     -0.536461672
N      -0.013786817     -0.094627399      1.785103868
H       1.047196074      0.528663137     -0.601622036
H       0.428089195     -0.879384592      2.208028766
H      -0.448614308      0.820212105      1.561870635
H      -0.456599109     -0.941607996     -0.313313443
           6
  t=        54.00000    7    1
C      -0.036197958      0.151198052     -0.551032405
N      -0.015124473     -0.088623630      1.798109942
H       1.050922055      0.509442036     -0.587675515
H       0.421258414     -0.907552131      2.193560921
H      -0.416565744      0.758864820      1.566556181
H      -0.414367272     -0.929798913     -0.324698247
           6
  t=        54.50000    7    1
C      -0.040277491      0.151710894     -0.565123912
N      -0.016306609     -0.082823329      1.810630688
H       1.049779652      0.489275333     -0.574622775
H       0.413230054     -0.933538652      2.180124775
H      -0.386069469      0.700769054      1.576175685
H      -0.370692614     -0.912248713     -0.340117677
           6
  t=        55.00000    7    1
C      -0.043845817      0.151706002     -0.578744504
N      -0.016840580     -0.078196225      1.823119650
H       1.043730309      0.469238795     -0.562923033
H       0.403219558     -0.956198550      2.166295496
H      -0.363236367      0.657578959      1.585505450
H      -0.327558397     -0.890595601     -0.358666731
           6
  t=        55.50000    7    1
C      -0.046837621      0.151319579     -0.591924830
N      -0.016298209     -0.075696422      1.835896651
H       1.033274845      0.450079846     -0.552765765
H       0.390803734     -0.974334468      2.151873955
H      -0.353574311      0.641218795      1.590481721
H      -0.286261288     -0.867073694     -0.379971826
           6
  t=        56.00000    7    1
C      -0.049205740      0.150740053     -0.604693281
N      -0.014495142     -0.075728859      1.849114651
H       1.019202348      0.432617564     -0.544345183
H       0.375808395     -0.987458623      2.136945495
H      -0.359492902      0.656744044      1.588919642
H      -0.248129664     -0.844662554     -0.403526489
           6
  t=        56.50000    7    1
C      -0.050933175      0.150189314     -0.617076261
N      -0.011643687     -0.077832674      1.862628535
H       1.002600663      0.417728000     -0.537840608
H       0.358366810     -0.995904081      2.121813203
H      -0.378239689      0.698052094      1.582483132
H      -0.214389584     -0.826847931     -0.428787745
           6
  t=        57.00000    7    1
C      -0.052046242      0.149879594     -0.629090444
N      -0.008174935     -0.081061006      1.876115399
H       0.984835158      0.406307752     -0.533390215
H       0.338860145     -1.000781370      2.106906443
H      -0.404302881      0.753104493      1.575134353
H      -0.185996319     -0.817060496     -0.455323855
           6
  t=        57.50000    7    1
C      -0.052621435      0.149949205     -0.640733230
N      -0.004493116     -0.084503404      1.889272293
H       0.967476447      0.399219948     -0.531062476
H       0.317800438     -1.003803621      2.092684158
H      -0.432690666      0.810987045      1.570500090
H      -0.163497012     -0.817833003     -0.482973751
           6
  t=        58.00000    7    1
C      -0.052778164      0.150403974     -0.651978542
N      -0.000881212     -0.087484265      1.901896828
H       0.952160032      0.397225674     -0.530839960
H       0.295689125     -1.007011647      2.079545964
H      -0.460083695      0.864367714      1.570855960
H      -0.146994318     -0.830010154     -0.511928500
           6
  t=        58.50000    7    1
C      -0.052655422      0.151101438     -0.662783280
N       0.002493302     -0.089552164      1.913880580
H       0.940370288      0.400907340     -0.532627812
H       0.272870017     -1.012401572      2.067759522
H      -0.484594422      0.908958657      1.577301957
H      -0.136222023     -0.852466369     -0.542657357
           6
  t=        59.00000    7    1
C      -0.052379955      0.151791601     -0.673101883
N       0.005551268     -0.090432802      1.925181219
H       0.933183878      0.410598002     -0.536288359
H       0.249405437     -1.021483065      2.057418369
H      -0.505257365      0.942413123      1.590196796
H      -0.130675622     -0.882512808     -0.575704555
           6
  t=        59.50000    7    1
C      -0.052037282      0.152188703     -0.682899439
N       0.008277873     -0.089997546      1.935797572
H       0.931038216      0.426328436     -0.541692058
H       0.225024814     -1.034889470      2.048448855
H      -0.521643047      0.963499799      1.609495138
H      -0.129727344     -0.916700404     -0.611480056
           6
  t=        60.00000    7    1
C      -0.051655433      0.152036165     -0.692157465
N       0.010701965     -0.088241046      1.945750783
H       0.933617841      0.447806147     -0.548761325
H       0.199178139     -1.052196487      2.040665656
H      -0.533626148      0.971616614      1.634951000
H      -0.132704145     -0.951578149     -0.650143986
           6
  t=        60.50000    7    1
C      -0.051205384      0.151143571     -0.700873322
N       0.012876712     -0.085255098      1.955071140
H       0.939908700      0.474432034     -0.557488261
H       0.171178171     -1.072031767      2.033853290
H      -0.541263116      0.966544890      1.666220327
H      -0.138932560     -0.984157925     -0.691596958
           6
  t=        61.00000    7    1
C      -0.050615700      0.149396361     -0.709057080
N       0.014863952     -0.081198565      1.963790612
H       0.948401028      0.505352574     -0.567922953
H       0.140368728     -1.092406214      2.027839477
H      -0.544747851      0.948369778      1.702896819
H      -0.147762526     -1.012089129     -0.735534597
           6
  t=        61.50000    7    1
C      -0.049794245      0.146748626     -0.716728229
N       0.016726518     -0.076272670      1.971940409
H       0.957364345      0.539538085     -0.580144985
H       0.106253960     -1.111105955      2.022539046
H      -0.544438894      0.917534081      1.744507498
H      -0.158579230     -1.033656244     -0.781520752
           6
  t=        62.00000    7    1
C      -0.048648462      0.143208974     -0.723912602
N       0.018531449     -0.070710959      1.979551925
H       0.965097083      0.575866776     -0.594234467
H       0.068562143     -1.126014748      2.017967209
H      -0.540972666      0.875025050      1.790486916
H      -0.170806510     -1.047698503     -0.829053685
           6
  t=        62.50000    7    1
C      -0.047099699      0.138826085     -0.730639740
N       0.020366031     -0.064789087      1.986658875
H       0.970102470      0.613202867     -0.610250235
H       0.027253671     -1.135318799      2.014231404
H      -0.535497914      0.822717866      1.840151126
H      -0.183908517     -1.053518662     -0.877614765
           6
  t=        63.00000    7    1
C      -0.045090759      0.133677236     -0.736940648
N       0.022367292     -0.058853127      1.993297245
H       0.971182071      0.650459108     -0.628215751
H      -0.017497006     -1.137616149      2.011511452
H      -0.530068544      0.763879614      1.892709507
H      -0.197392269     -1.050810203     -0.926700540
           6
  t=        63.50000    7    1
C      -0.042588034      0.127860765     -0.742845712
N       0.024759475     -0.053350520      1.999496880
H       0.967463089      0.686640426     -0.648110694
H      -0.065318968     -1.131982361      2.010032928
H      -0.528143899      0.703664596      1.947397774
H      -0.210812447     -1.039610777     -0.975845515
           6
  t=        64.00000    7    1
C      -0.039580596      0.121492211     -0.748382983
N       0.027869610     -0.048813565      2.005257752
H       0.958389421      0.720871386     -0.669865200
H      -0.115651603     -1.118040021      2.010029627
H      -0.534792326      0.648954341      2.003838545
H      -0.223779230     -1.020283629     -1.024641581
           6
  t=        64.50000    7    1
C      -0.036078014      0.114703154     -0.753576337
N       0.032048434     -0.045713057      2.010521303
H       0.943698473      0.752412627     -0.693358431
H      -0.167756165     -1.096051980      2.011688111
H      -0.555572983      0.606418578      2.062498138
H      -0.235968898     -0.993521602     -1.072764539
           6
  t=        65.00000    4    1
C      -0.032108026      0.107641205     -0.758442990
N       0.037451614     -0.044194165      2.015188376
H       0.923398327      0.780671914     -0.718424477
H      -0.220766963     -1.067011188      2.015077593
H      -0.593437282      0.578938628      2.124524442
H      -0.247136444     -0.960361390     -1.120014673
           6
  t=        65.50000    4    1
C      -0.027657377      0.100318263     -0.763232250
N       0.043734211     -0.044027286      2.019516894
H       0.897274301      0.805787678     -0.744842528
H      -0.272898304     -1.032276053      2.019078714
H      -0.645158982      0.565069509      2.190757716
H      -0.257444204     -0.921469914     -1.166948960
           6
  t=        66.00000    4    1
C      -0.022842228      0.093064106     -0.767692054
N       0.050498608     -0.044581014      2.023279135
H       0.866323260      0.826924814     -0.772433062
H      -0.324364636     -0.994536340      2.024453363
H      -0.704981790      0.558106318      2.260071996
H      -0.266523213     -0.879316948     -1.213219996
           6
  t=        66.50000    4    1
C      -0.017737566      0.086059049     -0.771795532
N       0.057205420     -0.045334601      2.026644692
H       0.831317264      0.844026322     -0.800995836
H      -0.374701184     -0.956335825      2.030800595
H      -0.765717620      0.553244434      2.330492853
H      -0.274411107     -0.835879542     -1.259329013
           6
  t=        67.00000    4    1
C      -0.012439074      0.079465725     -0.775499356
N       0.063454411     -0.045930781      2.029804534
H       0.793287836      0.857272615     -0.830364197
H      -0.423664551     -0.920001190      2.037635074
H      -0.821865212      0.547730657      2.399916127
H      -0.281183749     -0.793158655     -1.306022443
           6
  t=        67.50000    4    1
C      -0.007071850      0.073402662     -0.778751815
N       0.069000200     -0.046176989      2.032930066
H       0.753521139      0.867106346     -0.860447314
H      -0.471098185     -0.887256467      2.044437927
H      -0.869959766      0.540490905      2.466646471
H      -0.286849737     -0.752885684     -1.354174159
           6
  t=        68.00000    4    1
C      -0.001799448      0.067918463     -0.781507817
N       0.073702675     -0.046007392      2.036166129
H       0.713520257      0.874236453     -0.891285593
H      -0.516743287     -0.859018857      2.050688749
H      -0.908067658      0.531396704      2.529492174
H      -0.291210407     -0.716217292     -1.404581035
           6
  t=        68.50000    4    1
C       0.003175603      0.062977755     -0.783746107
N       0.077474757     -0.045441258      2.039639311
H       0.674902959      0.879604088     -0.923106342
H      -0.560104459     -0.835433401      2.055882671
H      -0.935193947      0.520724785      2.587667614
H      -0.293752491     -0.683537456     -1.457737213
           6
  t=        69.00000    4    1
C       0.007635466      0.058465211     -0.785482148
N       0.080248208     -0.044544375      2.043466661
H       0.639189057      0.884302226     -0.956337046
H      -0.600436910     -0.816092834      2.059534365
H      -0.950842490      0.508859253      2.640671508
H      -0.293694844     -0.654443218     -1.513670777
           6
  t=        69.50000    4    1
C       0.011412369      0.054203705     -0.786776563
N       0.081956133     -0.043395717      2.047751263
H       0.607441349      0.889471318     -0.991463755
H      -0.636840138     -0.800333344      2.061178764
H      -0.954759061      0.496168956      2.688199736
H      -0.290327890     -0.627901417     -1.571836956
           6
  t=        70.00000    4    1
C       0.014476093      0.049989346     -0.787744731
N       0.082530176     -0.042064949      2.052554895
H       0.579896192      0.896173516     -1.028628107
H      -0.668406907     -0.787500396      2.060386671
H      -0.946866964      0.483006314      2.730080239
H      -0.283562379     -0.602585505     -1.630977429
           6
  t=        70.50000    4    1
C       0.016937512      0.045660295     -0.788555912
N       0.081913950     -0.040607716      2.057878082
H       0.556016376      0.905136378     -1.067267333
H      -0.694372781     -0.777110849      2.056791041
H      -0.927297906      0.469759526      2.766177832
H      -0.274030503     -0.577394235     -1.689144686
           6
  t=        71.00000    1    1
C       0.018948512      0.041155129     -0.789406501
N       0.080073700     -0.039069818      2.063690541
H       0.534961460      0.916488848     -1.106275660
H      -0.714187677     -0.768876441      2.050065263
H      -0.896293342      0.456840891      2.796308454
H      -0.262539944     -0.551789403     -1.744174609
           6
  t=        71.50000    4    1
C       0.021399304      0.035231185     -0.791349638
N       0.076337013     -0.037006278      2.071595336
H       0.510098825      0.934061525     -1.151742504
H      -0.732765074     -0.760116095      2.038837465
H      -0.844421276      0.440274472      2.828814095
H      -0.248233180     -0.519693540     -1.806682109
           6
  t=        72.00000    4    1
C       0.023810672      0.029271048     -0.794263610
N       0.071386731     -0.034891572      2.079947806
H       0.486319507      0.953249515     -1.192247946
H      -0.745297599     -0.752501397      2.025176795
H      -0.781993567      0.423774745      2.856002712
H      -0.234278729     -0.488414006     -1.861061707
           6
  t=        72.50000    4    1
C       0.026233269      0.023425076     -0.798273505
N       0.065260825     -0.032778329      2.088741002
H       0.463000534      0.972891213     -1.226791957
H      -0.751772634     -0.745726246      2.009165583
H      -0.709497991      0.407625164      2.877519263
H      -0.220709152     -0.458437782     -1.906454763
           6
  t=        73.00000    4    1
C       0.028707260      0.017830881     -0.803537752
N       0.058033555     -0.030704672      2.097959644
H       0.439788829      0.992017801     -1.254286344
H      -0.752393443     -0.739515519      1.990880648
H      -0.627780514      0.392071189      2.893667343
H      -0.207632171     -0.430425478     -1.942231188
           6
  t=        73.50000    4    1
C       0.031258937      0.012610372     -0.810171797
N       0.049845402     -0.028714449      2.107537015
H       0.416488449      1.009866200     -1.273849476
H      -0.747678755     -0.733652489      1.970557814
H      -0.538293850      0.377499577      2.905308390
H      -0.195145332     -0.405059804     -1.968068300
           6
  t=        74.00000    4    1
C       0.033855215      0.007876717     -0.818042137
N       0.040949882     -0.026978418      2.117267152
H       0.392976589      1.025568428     -1.285838224
H      -0.737842998     -0.728081105      1.948091641
H      -0.444037284      0.365906348      2.914549714
H      -0.183040661     -0.382499754     -1.984338965
           6
  t=        74.50000    4    1
C       0.036500879      0.003710987     -0.827193043
N       0.031618673     -0.025616464      2.126875031
H       0.369274480      1.038771411     -1.289815622
H      -0.723744933     -0.722457699      1.924089149
H      -0.347940013      0.358604012      2.924850462
H      -0.171383157     -0.363348003     -1.991197897
           6
  t=        75.00000    4    1
C       0.039196362      0.000176155     -0.837637359
N       0.022138258     -0.024762791      2.135979822
H       0.345464380      1.049299421     -1.285516273
H      -0.706475007     -0.716476177      1.899429477
H      -0.252918691      0.357154256      2.940874105
H      -0.160233626     -0.348181726     -1.989008804
           6
  t=        75.50000    4    1
C       0.041939997     -0.002681070     -0.849352080
N       0.012724382     -0.024500743      2.144222225
H       0.321666661      1.057131848     -1.272843331
H      -0.687334901     -0.710015701      1.875171774
H      -0.160708611      0.362610531      2.966800050
H      -0.149653280     -0.337552766     -1.978388758
           6
  t=        76.00000    4    1
C       0.044730358     -0.004828666     -0.862268887
N       0.003480755     -0.024773133      2.151465456
H       0.298021417      1.062389693     -1.251876891
H      -0.667780782     -0.703302011      1.852368281
H      -0.071344367      0.374433921      3.003703779
H      -0.139715458     -0.331993314     -1.960298315
           6
  t=        76.50000    4    1
C       0.047568837     -0.006247850     -0.876260633
N      -0.005539577     -0.025354075      2.157881874
H       0.274674126      1.065331267     -1.222888551
H      -0.649316276     -0.696988408      1.831862359
H       0.015883154      0.390183833      3.048541447
H      -0.130524709     -0.332029986     -1.936174154
           6
  t=        77.00000    4    1
C       0.050462643     -0.006930756     -0.891126817
N      -0.014253138     -0.025921938      2.163831342
H       0.251763162      1.066352522     -1.186355196
H      -0.633332504     -0.692086938      1.814176157
H       0.101143189      0.406463387      3.095944507
H      -0.122243233     -0.338212280     -1.908080371
           6
  t=        77.50000    4    1
C       0.053427688     -0.006876460     -0.906585061
N      -0.022539262     -0.026161247      2.169680361
H       0.229407142      1.065982245     -1.142960928
H      -0.620906944     -0.689757159      1.799537688
H       0.183775050      0.420121208      3.140704609
H      -0.115117493     -0.351152425     -1.878807039
           6
  t=        78.00000    4    1
C       0.056489592     -0.006086310     -0.922281979
N      -0.030282769     -0.025825496      2.175702870
H       0.207691600      1.064857287     -1.093574608
H      -0.612613898     -0.691018484      1.788029551
H       0.262697637      0.428829570      3.179008575
H      -0.109483028     -0.371549076     -1.851768624
           6
  t=        78.50000    4    1
C       0.059680200     -0.004563412     -0.937839467
N      -0.037409985     -0.024757013      2.182062324
H       0.186654940      1.063660571     -1.039193495
H      -0.608417354     -0.696492235      1.779785510
H       0.336808183      0.431093157      3.208498532
H      -0.105714335     -0.400122323     -1.830516908
           6
  t=        79.00000    4    1
C       0.063027914     -0.002324505     -0.952938652
N      -0.043899803     -0.022883067      2.188829716
H       0.166273435      1.063011261     -0.980863635
H      -0.607691138     -0.706267256      1.775123868
H       0.405159496      0.426052011      3.227891430
H      -0.104098098     -0.437353759     -1.817824247
           6
  t=        79.50000    4    1
C       0.066543640      0.000575401     -0.967408548
N      -0.049774767     -0.020200137      2.196010054
H       0.146457228      1.063316983     -0.919605026
H      -0.609365638     -0.719925034      1.774567214
H       0.466984816      0.413282934      3.236594005
H      -0.104663945     -0.483040249     -1.814705437
           6
  t=        80.00000    4    1
C       0.070212536      0.004023660     -0.981261068
N      -0.055083577     -0.016753886      2.203567993
H       0.127057865      1.064626485     -0.856368887
H      -0.612138044     -0.736677084      1.778760918
H       0.521665142      0.392658313      3.234433865
H      -0.107093838     -0.535915695     -1.820049315
           6
  t=        80.50000    8    2
C       0.073998417      0.007860119     -0.994644952
N      -0.059884315     -0.012619897      2.211448494
H       0.107891182      1.066544170     -0.792036785
H      -0.614672253     -0.755540858      1.788351452
H       0.568694157      0.364257894      3.221503217
H      -0.110795552     -0.593689707     -1.831177242
           6
  t=        81.00000    8    2
C       0.077469900      0.011541469     -1.006472511
N      -0.063802019     -0.008503929      2.219005804
H       0.090685574      1.068098210     -0.733816249
H      -0.615512908     -0.772251958      1.801212365
H       0.603630851      0.332611108      3.198751732
H      -0.114585380     -0.647908998     -1.843683415
           6
  t=        81.50000    8    2
C       0.080935377      0.015315813     -1.018178304
N      -0.067303378     -0.004271762      2.227146714
H       0.073556796      1.068487822     -0.676413116
H      -0.614089439     -0.786323877      1.817428826
H       0.630299494      0.296315525      3.163814132
H      -0.118161449     -0.701676022     -1.856100194
           6
  t=        82.00000    4    1
C       0.084366374      0.019083019     -1.029891033
N      -0.070408087     -0.000022372      2.235818310
H       0.056409817      1.066622300     -0.620537125
H      -0.609972855     -0.797001334      1.837105979
H       0.648556040      0.256031095      3.117458457
H      -0.121100971     -0.752747838     -1.866323402
           6
  t=        82.50000    4    1
C       0.088160955      0.023221314     -1.043069768
N      -0.073515720      0.004862813      2.245803695
H       0.037077504      1.061017353     -0.560271973
H      -0.602083745     -0.806377622      1.864074986
H       0.660422234      0.206216401      3.055902322
H      -0.123525729     -0.805103731     -1.873826046
           6
  t=        83.00000    4    1
C       0.091907784      0.027257180     -1.056352021
N      -0.076396703      0.010020455      2.255731612
H       0.017519004      1.051044159     -0.502693945
H      -0.590668272     -0.814786730      1.896886504
H       0.665476651      0.151296093      2.988393226
H      -0.125019458     -0.851518954     -1.876500073
           6
  t=        83.50000    4    1
C       0.095591376      0.031177592     -1.069735472
N      -0.079216445      0.015363966      2.265416738
H      -0.002233093      1.035853587     -0.448527108
H      -0.575914034     -0.822235341      1.934949509
H       0.666262326      0.092464704      2.918127727
H      -0.125487571     -0.890974047     -1.873679610
           6
  t=        84.00000    4    1
C       0.099206465      0.034983440     -1.083202131
N      -0.082244711      0.020821509      2.274614178
H      -0.022157378      1.014796884     -0.398410313
H      -0.558387957     -0.828956968      1.977447503
H       0.667153399      0.030933719      2.849375113
H      -0.124947772     -0.922810710     -1.864990157
           6
  t=        84.50000    4    1
C       0.102754155      0.038695427     -1.096743621
N      -0.085830525      0.026366589      2.283075500
H      -0.042232022      0.987350539     -0.352799466
H      -0.539089791     -0.835414240      2.023353443
H       0.674058264     -0.032488754      2.786708449
H      -0.123494215     -0.946729281     -1.850169776
           6
  t=        85.00000    8    2
C       0.106187317      0.042334268     -1.110341604
N      -0.090263499      0.032035503      2.290678527
H      -0.062124306      0.953215048     -0.312123122
H      -0.519380517     -0.842260566      2.071477691
H       0.692430102     -0.097668769      2.733172060
H      -0.120966700     -0.962661761     -1.829165366
           6
  t=        85.50000    8    2
C       0.108779710      0.045139184     -1.121071540
N      -0.094459496      0.036347455      2.296156214
H      -0.077412246      0.920210140     -0.284978512
H      -0.506375928     -0.846840415      2.109045496
H       0.719165432     -0.147929932      2.698200466
H      -0.117984323     -0.968126361     -1.807256468
           6
  t=        86.00000    8    2
C       0.111253490      0.047848009     -1.131706246
N      -0.099073763      0.040163255      2.301356302
H      -0.092196956      0.880650710     -0.263899332
H      -0.499191389     -0.849415681      2.144381539
H       0.757505750     -0.193460900      2.668789375
H      -0.114066218     -0.965733365     -1.779887700
           6
  t=        86.50000    8    2
C       0.113602851      0.050474825     -1.142199053
N      -0.103676208      0.043412027      2.306482641
H      -0.106352877      0.834845828     -0.248918915
H      -0.499164307     -0.850499133      2.177296355
H       0.802845865     -0.232742597      2.642304851
H      -0.109302048     -0.955981045     -1.747590396
           6
  t=        87.00000    8    2
C       0.115820469      0.053051436     -1.152499314
N      -0.107851849      0.046002922      2.311685090
H      -0.119711968      0.783296122     -0.239881282
H      -0.507144865     -0.850370677      2.207888161
H       0.850288366     -0.264213527      2.616566329
H      -0.103791001     -0.939768027     -1.711123398
           6
  t=        87.50000    8    2
C       0.117907277      0.055635669     -1.162546779
N      -0.111286020      0.047850965      2.317040448
H      -0.132123645      0.726728423     -0.236424895
H      -0.523431893     -0.848978628      2.236473962
H       0.895770787     -0.286730492      2.590179436
H      -0.097705521     -0.918523873     -1.671555357
           6
  t=        88.00000    8    2
C       0.119879121      0.058324241     -1.172272208
N      -0.113777138      0.048886469      2.322569106
H      -0.143491858      0.666117565     -0.237927026
H      -0.547793520     -0.845932449      2.263488068
H       0.936267676     -0.299707280      2.562410373
H      -0.091337629     -0.894383514     -1.630317249
           6
  t=        88.50000    8    2
C       0.121771412      0.061262801     -1.181603896
N      -0.115218099      0.049054887      2.328257138
H      -0.153806639      0.602700630     -0.243431397
H      -0.579532789     -0.840565669      2.289390770
H       0.969600084     -0.303049329      2.532975137
H      -0.085125064     -0.870321397     -1.589201932
           6
  t=        89.00000    8    2
C       0.123639326      0.064640818     -1.190483071
N      -0.115572959      0.048316400      2.334073115
H      -0.163171150      0.537964403     -0.251586931
H      -0.617575781     -0.832047698      2.314599853
H       0.994200810     -0.297034891      2.501878571
H      -0.079627777     -0.850079340     -1.550246203
           6
  t=        89.50000    8    2
C       0.125549753      0.068655565     -1.198888651
N      -0.114858701      0.046647383      2.339978253
H      -0.171818857      0.473580511     -0.260638621
H      -0.660561567     -0.819503618      2.339450511
H       1.008951204     -0.282213940      2.469315828
H      -0.075415085     -0.837674564     -1.515447582
           6
  t=        90.00000    8    2
C       0.127562019      0.073439403     -1.206861052
N      -0.113133992      0.044044196      2.345931869
H      -0.180100171      0.411264355     -0.268539402
H      -0.706931140     -0.802127800      2.364177844
H       1.013113492     -0.259345348      2.435614771
H      -0.072849015     -0.836394650     -1.486369573
           6
  t=        90.50000    8    2
C       0.129702131      0.078979191     -1.214502599
N      -0.110494826      0.040527906      2.351894191
H      -0.188411382      0.352574122     -0.273237628
H      -0.755009727     -0.779275503      2.388915201
H       1.006351852     -0.229369427      2.401198137
H      -0.071848137     -0.847638468     -1.463848958
           6
  t=        91.00000    8    2
C       0.131944941      0.085085071     -1.221939146
N      -0.107077268      0.036148815      2.357827979
H      -0.197063838      0.298721733     -0.273113202
H      -0.803080085     -0.750526483      2.413703595
H       0.988843121     -0.193406049      2.366549855
H      -0.071805206     -0.870356606     -1.448014822
           6
  t=        91.50000    8    2
C       0.134215819      0.091437199     -1.229260361
N      -0.103067653      0.030989859      2.363701080
H      -0.206141837      0.250489281     -0.267403197
H      -0.849451562     -0.715725701      2.438504480
H       0.961486878     -0.152760527      2.332164717
H      -0.071748548     -0.901524899     -1.438571942
           6
  t=        92.00000    8    2
C       0.136408650      0.097673865     -1.236478915
N      -0.098720140      0.025167441      2.369492117
H      -0.215427367      0.208284668     -0.256391049
H      -0.892529490     -0.675006872      2.463211350
H       0.926218295     -0.108910784      2.298456508
H      -0.070631161     -0.937250142     -1.435096241
           6
  t=        92.50000    8    2
C       0.138409177      0.103464098     -1.243531192
N      -0.094376684      0.018826669      2.375201419
H      -0.224441767      0.172275082     -0.241250383
H      -0.930890368     -0.628802341      2.487657392
H       0.886360403     -0.063429847      2.265597023
H      -0.067566544     -0.973769531     -1.437181139
           6
  t=        93.00000    8    2
C       0.140114921      0.108542474     -1.250309131
N      -0.090471778      0.012127981      2.380867960
H      -0.232577282      0.142494632     -0.223641683
H      -0.963370657     -0.577846270      2.511609707
H       0.846778162     -0.017792260      2.233276820
H      -0.061933737     -1.007977257     -1.444451975
           6
  t=        93.50000    8    2
C       0.141486809      0.112771689     -1.256768649
N      -0.087489995      0.005228027      2.386528422
H      -0.239520433      0.118486673     -0.204133599
H      -0.988930096     -0.523090565      2.534805826
H       0.813141898      0.026840870      2.200671334
H      -0.053558785     -1.037845375     -1.456287657
           6
  t=        94.00000    8    2
C       0.142472859      0.116030522     -1.262807816
N      -0.085834453     -0.001726852      2.392307184
H      -0.244771070      0.100101761     -0.184339812
H      -1.007213896     -0.465956948      2.556948657
H       0.790692252      0.069862312      2.166317199
H      -0.042317212     -1.061785461     -1.472255845
           6
  t=        94.50000    8    2
C       0.143036321      0.118236004     -1.268332853
N      -0.085649237     -0.008644703      2.398268048
H      -0.247919192      0.087275784     -0.165814771
H      -1.018504229     -0.407846092      2.578121477
H       0.781734318      0.111327480      2.129272667
H      -0.028202455     -1.078677837     -1.491946726
           6
  t=        95.00000    8    2
C       0.143155447      0.119334702     -1.273266275
N      -0.086710268     -0.015545679      2.404366702
H      -0.248657722      0.079908419     -0.149879795
H      -1.023937938     -0.349378995      2.598681442
H       0.784325649      0.152105385      2.089805043
H      -0.011296739     -1.087753993     -1.514970369
           6
  t=        95.50000    8    2
C       0.142823894      0.119299667     -1.277554195
N      -0.088525214     -0.022451763      2.410488327
H      -0.246783829      0.077789561     -0.137615563
H      -1.025398972     -0.290799326      2.618964432
H       0.793537340      0.192785942      2.049213743
H       0.008244842     -1.088523737     -1.540927653
           6
  t=        96.00000    8    2
C       0.142048803      0.118129121     -1.281165488
N      -0.090522621     -0.029361739      2.416472166
H      -0.242193538      0.080617075     -0.129868890
H      -1.025203356     -0.232072273      2.639338683
H       0.803769758      0.233395635      2.009427571
H       0.030208959     -1.080741972     -1.569405791
           6
  t=        96.50000    8    2
C       0.140848870      0.115847062     -1.284088346
N      -0.092199622     -0.036277224      2.422152459
H      -0.234872176      0.088012245     -0.127266595
H      -1.025623952     -0.172801851      2.660187246
H       0.810332244      0.273657210      1.972438436
H       0.054334834     -1.064411960     -1.599990427
           6
  t=        97.00000    8    2
C       0.139252430      0.112505093     -1.286325727
N      -0.093201862     -0.043223480      2.427389262
H      -0.224883285      0.099534158     -0.130242769
H      -1.028287373     -0.112213903      2.681819169
H       0.809951375      0.313252373      1.939960445
H       0.080325116     -1.039812100     -1.632290932
           6
  t=        97.50000    8    2
C       0.137296077      0.108186712     -1.287891711
N      -0.093358973     -0.050242897      2.432074654
H      -0.212362783      0.114676599     -0.139045248
H      -1.033604343     -0.049340384      2.704411756
H       0.800693487      0.351920347      1.913401116
H       0.107857283     -1.007548669     -1.665977167
           6
  t=        98.00000    8    2
C       0.135021584      0.103013349     -1.288806845
N      -0.092714645     -0.057283181      2.436070308
H      -0.197516621      0.132796600     -0.153624593
H      -1.040285316      0.016030118      2.728304728
H       0.781917067      0.388916159      1.894345950
H       0.136598884     -0.968617534     -1.700857192
           6
  t=        98.50000    8    2
C       0.132477067      0.097151283     -1.289106575
N      -0.091420651     -0.064118266      2.439404844
H      -0.180677387      0.153376718     -0.173517625
H      -1.046368789      0.082550829      2.752729550
H       0.753838822      0.422430686      1.883134730
H       0.166240175     -0.924466284     -1.736941040
           6
  t=        99.00000    8    2
C       0.129710933      0.090795141     -1.288822078
N      -0.089685369     -0.070603667      2.442163570
H      -0.162207372      0.175954960     -0.198455606
H      -1.049669839      0.149121925      2.776909516
H       0.717184823      0.451513892      1.879664448
H       0.196551352     -0.876907996     -1.774431786
           6
  t=        99.50000    8    2
C       0.126781037      0.084186542     -1.288031531
N      -0.087743967     -0.076604793      2.444432664
H      -0.142654743      0.199958365     -0.227223416
H      -1.048057168      0.214443463      2.800115444
H       0.673086902      0.475590888      1.883619386
H       0.227396113     -0.828241814     -1.813766231
           6
  t=       100.00000    8    2
C       0.123743481      0.077565273     -1.286853561
N      -0.085836275     -0.081987429      2.446312906
H      -0.122691457      0.224876046     -0.257829053
H      -1.039896759      0.276935579      2.821752554
H       0.623230015      0.494375980      1.894262764
H       0.258791714     -0.780811243     -1.855592602
