           6
  t=         0.00000    9    3
C      -0.003024004     -0.004427890      0.005943147
N       0.005195435     -0.020685759      1.329769149
H       0.995026954      0.029699992     -0.518304297
H       0.855183505      0.142554583      1.834480920
H      -0.940440960      0.091802266      1.823101208
H      -0.945950409      0.076124460     -0.414305084
           6
  t=         0.50000    9    3
C      -0.000437706     -0.002553712      0.001554613
N       0.003051267     -0.022155321      1.334999092
H       0.997165680      0.018317508     -0.523234444
H       0.869780682      0.154675014      1.830907948
H      -0.935877042      0.089495915      1.815409826
H      -0.968253334      0.075795975     -0.418523289
           6
  t=         1.00000   12    3
C       0.002157629     -0.000785401     -0.004560178
N       0.000874265     -0.023766261      1.342054646
H       0.997373651      0.009361939     -0.527835523
H       0.882791192      0.165909511      1.828318916
H      -0.926272595      0.089597834      1.805801643
H      -0.991730780      0.074743143     -0.426949143
           6
  t=         1.50000   12    3
C       0.004608175      0.000922330     -0.011948041
N      -0.001181889     -0.025378478      1.350346042
H       0.997205315      0.002037431     -0.530986665
H       0.894388003      0.175699082      1.825080978
H      -0.914677299      0.091058398      1.794519901
H      -1.015364162      0.072884590     -0.436515445
           6
  t=         2.00000   12    3
C       0.006678846      0.002555877     -0.019642480
N      -0.002915202     -0.027053300      1.359347180
H       0.997446976     -0.002394436     -0.536592037
H       0.902767564      0.182967575      1.822824632
H      -0.901090254      0.095869227      1.783340095
H      -1.038144611      0.069057370     -0.450922104
           6
  t=         2.50000   12    3
C       0.008500817      0.004134390     -0.027147936
N      -0.004314324     -0.028758742      1.368581505
H       0.997938732     -0.004189044     -0.545702190
H       0.907902150      0.187490475      1.821405434
H      -0.887191973      0.104014966      1.773826459
H      -1.059923556      0.063084282     -0.469817456
           6
  t=         3.00000   12    3
C       0.010246732      0.005678104     -0.034264904
N      -0.005378934     -0.030483468      1.377737396
H       0.997904609     -0.003650906     -0.558613433
H       0.910042216      0.189257274      1.820620507
H      -0.874876684      0.115485837      1.767509864
H      -1.080341335      0.054891705     -0.492278930
           6
  t=         3.50000    9    3
C       0.012022184      0.007203010     -0.040948856
N      -0.006080940     -0.032234858      1.386606749
H       0.996547664     -0.001040000     -0.575130535
H       0.909551677      0.188360654      1.820338802
H      -0.866026104      0.130375261      1.765599527
H      -1.098730832      0.044465662     -0.517218595
           6
  t=         4.00000    9    3
C       0.012880129      0.008836564     -0.047888738
N      -0.005808491     -0.034138813      1.395655955
H       0.997086496      0.002286301     -0.593138122
H       0.906129181      0.185900045      1.820008470
H      -0.864543214      0.148482397      1.766550972
H      -1.111331291      0.032496627     -0.542932550
           6
  t=         4.50000    9    3
C       0.013883154      0.010469333     -0.054236379
N      -0.005255886     -0.036102249      1.404069732
H       0.995218685      0.007238891     -0.614196984
H       0.901360230      0.181282354      1.820272355
H      -0.867881378      0.170048795      1.772663667
H      -1.120977625      0.018434933     -0.569573541
           6
  t=         5.00000    9    3
C       0.015101975      0.012110459     -0.059842688
N      -0.004605915     -0.038129641      1.411703672
H       0.990549037      0.013560347     -0.638122420
H       0.896208360      0.174937886      1.821258977
H      -0.874937226      0.194716269      1.783410093
H      -1.127643794      0.002419180     -0.596695995
           6
  t=         5.50000    9    3
C       0.016593245      0.013769036     -0.064563522
N      -0.004090962     -0.040211810      1.418454537
H       0.982788482      0.020980772     -0.664725662
H       0.891671029      0.167355566      1.823104434
H      -0.883808637      0.221855409      1.797843347
H      -1.131386059     -0.015376037     -0.623959759
           6
  t=         6.00000    9    3
C       0.018403238      0.015455105     -0.068263128
N      -0.003949974     -0.042328536      1.424249652
H       0.971730398      0.029203496     -0.693809549
H       0.888648546      0.159058643      1.825898655
H      -0.892291504      0.250625194      1.814816862
H      -1.132333158     -0.034736801     -0.651111971
           6
  t=         6.50000    9    3
C       0.020581409      0.017181483     -0.070816682
N      -0.004391661     -0.044455799      1.429039166
H       0.957203123      0.037863940     -0.725156584
H       0.887804346      0.150621443      1.829598974
H      -0.898323881      0.280047339      1.833179456
H      -1.130727782     -0.055380911     -0.677969874
           6
  t=         7.00000    9    3
C       0.023233780      0.018965415     -0.072140248
N      -0.005580899     -0.046588398      1.432812235
H       0.938920668      0.046331938     -0.758426023
H       0.889431631      0.142994855      1.833833070
H      -0.900296922      0.308940857      1.851944135
H      -1.127157520     -0.076725693     -0.704363648
           6
  t=         7.50000    8    2
C       0.025965461      0.020573823     -0.073917592
N      -0.007330455     -0.048847877      1.436476877
H       0.916901421      0.054685273     -0.789095481
H       0.892014438      0.138493501      1.838636517
H      -0.897601277      0.336610995      1.870294221
H      -1.118633763     -0.096004845     -0.726602586
           6
  t=         8.00000    8    2
C       0.028685192      0.022137417     -0.076010909
N      -0.009760896     -0.051260501      1.440161090
H       0.890299918      0.064801839     -0.820145799
H       0.895661355      0.134387808      1.844996488
H      -0.888786699      0.365793277      1.888641674
H      -1.103108076     -0.116293571     -0.746524219
           6
  t=         8.50000    8    2
C       0.031194683      0.023659876     -0.077304604
N      -0.012763958     -0.053490107      1.443088576
H       0.861621451      0.076129132     -0.851193788
H       0.900348098      0.129099573      1.852224868
H      -0.873615786      0.394084409      1.904662024
H      -1.082442091     -0.137772460     -0.763996212
           6
  t=         9.00000    8    2
C       0.033433710      0.025136798     -0.077806874
N      -0.016257614     -0.055509256      1.445287522
H       0.831322100      0.088718087     -0.881937172
H       0.905398102      0.122418135      1.859883852
H      -0.852189702      0.421264441      1.917888180
H      -1.056736809     -0.160390677     -0.778709995
           6
  t=         9.50000    8    2
C       0.035342143      0.026561307     -0.077541947
N      -0.020126498     -0.057302807      1.446781364
H       0.799868571      0.102666212     -0.912018568
H       0.910077947      0.114093507      1.867542422
H      -0.824979006      0.447328851      1.928050751
H      -1.026141922     -0.184119706     -0.790359679
           6
  t=        10.00000    8    2
C       0.036865963      0.027925438     -0.076547252
N      -0.024234044     -0.058870901      1.447583602
H       0.767722555      0.118110770     -0.941016880
H       0.913697153      0.103862906      1.874813358
H      -0.792776015      0.472503762      1.935082998
H      -0.990890625     -0.208963363     -0.798654329
           6
  t=        10.50000    8    2
C       0.037961105      0.029221265     -0.074872965
N      -0.028433174     -0.060230407      1.447695888
H       0.735338696      0.135231572     -0.968438950
H       0.915681001      0.091460925      1.881380656
H      -0.756633393      0.497258425      1.939116546
H      -0.951329072     -0.234976562     -0.803328242
           6
  t=        11.00000    5    2
C       0.038598047      0.030441896     -0.072581468
N      -0.032578744     -0.061414172      1.447108232
H       0.703162790      0.154266218     -0.993716085
H       0.915624915      0.076616996      1.887019769
H      -0.717768231      0.522301940      1.940462223
H      -0.907946546     -0.262296956     -0.804154784
           6
  t=        11.50000    5    2
C       0.039013476      0.031643753     -0.069974002
N      -0.036709269     -0.062553335      1.446147284
H       0.670709481      0.174765474     -1.018058045
H       0.914449822      0.060141603      1.892248893
H      -0.677448828      0.548400064      1.940721897
H      -0.862193388     -0.290901283     -0.802996066
           6
  t=        12.00000    5    2
C       0.038982998      0.032758254     -0.066860412
N      -0.040556362     -0.063603901      1.444401478
H       0.639098994      0.197908300     -1.038915187
H       0.910922352      0.040636477      1.896520042
H      -0.636647041      0.576720607      1.939349778
H      -0.814041803     -0.321532743     -0.797853617
           6
  t=        12.50000    5    2
C       0.038536036      0.033776917     -0.063219873
N      -0.044028802     -0.064591518      1.441772184
H       0.608258638      0.224267770     -1.055718237
H       0.904836167      0.017628036      1.900206862
H      -0.595995525      0.608367852      1.936939163
H      -0.764197943     -0.354937736     -0.789141247
           6
  t=        13.00000    5    2
C       0.037659630      0.034681218     -0.058979278
N      -0.047007747     -0.065495840      1.438227122
H       0.578070875      0.254767312     -1.068351803
H       0.895626298     -0.009831868      1.903591977
H      -0.555861658      0.644331896      1.933387199
H      -0.713108807     -0.392143776     -0.777576067
           6
  t=        13.50000    5    2
C       0.036463730      0.035410353     -0.054394349
N      -0.049596538     -0.066247733      1.433933769
H       0.549270007      0.290546082     -1.075850884
H       0.884172997     -0.042020705      1.906359978
H      -0.516221429      0.684241469      1.928134073
H      -0.662286274     -0.433877877     -0.762530008
           6
  t=        14.00000    5    2
C       0.035071878      0.035955343     -0.049575427
N      -0.051899040     -0.066736088      1.428942465
H       0.521899866      0.332344202     -1.077395004
H       0.871116022     -0.079185796      1.908738057
H      -0.476595142      0.727237483      1.920845396
H      -0.612921471     -0.481210608     -0.744101976
           6
  t=        14.50000    5    2
C       0.033574778      0.036321678     -0.044567769
N      -0.053986733     -0.066793002      1.423282471
H       0.495639056      0.380604289     -1.072359388
H       0.856829956     -0.121724882      1.911036450
H      -0.436492640      0.771921782      1.911079011
H      -0.565644602     -0.535186990     -0.722652508
           6
  t=        15.00000    5    2
C       0.032009301      0.036505894     -0.039399589
N      -0.055870786     -0.066203840      1.416968007
H       0.470051643      0.435189612     -1.060229638
H       0.841461506     -0.170025498      1.913535266
H      -0.395815913      0.816363471      1.898524251
H      -0.520548270     -0.596292804     -0.698527110
           6
  t=        15.50000    5    2
C       0.030332390      0.036488340     -0.034123911
N      -0.057432145     -0.064750993      1.410014356
H       0.445400649      0.494658277     -1.040569836
H       0.825022306     -0.223844149      1.916207402
H      -0.355723677      0.858000578      1.883418763
H      -0.477889901     -0.663557242     -0.671953219
           6
  t=        16.00000    5    2
C       0.028465659      0.036272387     -0.028888781
N      -0.058495402     -0.062454817      1.402542246
H       0.424047652      0.555825049     -1.013065543
H       0.808237813     -0.280226505      1.917939805
H      -0.318884557      0.894126620      1.866686371
H      -0.439591772     -0.733800231     -0.642970743
           6
  t=        16.50000    5    2
C       0.026397975      0.035816214     -0.023864192
N      -0.059104691     -0.059460681      1.394742059
H       0.407076303      0.616971606     -0.977809800
H       0.791956806     -0.336353270      1.917734194
H      -0.285985387      0.923610308      1.848691752
H      -0.406153712     -0.804473676     -0.611474165
           6
  t=        17.00000    5    2
C       0.024127752      0.034982352     -0.019068950
N      -0.059322688     -0.055802138      1.386726448
H       0.394345720      0.677118304     -0.935556796
H       0.776512162     -0.390691315      1.915109492
H      -0.256986280      0.945727294      1.829745380
H      -0.376917844     -0.873303716     -0.577880050
           6
  t=        17.50000    5    2
C       0.021691895      0.033712740     -0.014205613
N      -0.059160874     -0.051550023      1.378270343
H       0.384995180      0.734338108     -0.887360868
H       0.761802705     -0.441336142      1.910983219
H      -0.231557474      0.960198087      1.811308171
H      -0.351531985     -0.938312789     -0.543926853
           6
  t=        18.00000    5    2
C       0.019096806      0.032069101     -0.009668051
N      -0.058620736     -0.046884304      1.369693128
H       0.378362202      0.787961455     -0.833019227
H       0.747006489     -0.487815662      1.904840318
H      -0.209352501      0.967947986      1.793031168
H      -0.328913707     -0.998463092     -0.508701261
           6
  t=        18.50000    5    2
C       0.016349843      0.030050767     -0.005561849
N      -0.057702561     -0.041910821      1.361176462
H       0.374001254      0.837320555     -0.773339207
H       0.731577515     -0.529637555      1.896304098
H      -0.190205161      0.969503545      1.774932576
H      -0.308321305     -1.052627171     -0.472304316
           6
  t=        19.00000    5    2
C       0.013459463      0.027668173     -0.001908305
N      -0.056404490     -0.036731170      1.352856416
H       0.371627610      0.881836200     -0.709463734
H       0.715104551     -0.566356782      1.885124234
H      -0.174048638      0.965447182      1.757174604
H      -0.289252160     -1.099965955     -0.435141959
           6
  t=        19.50000    5    2
C       0.010433370      0.024938606      0.001302578
N      -0.054730871     -0.031447828      1.344844311
H       0.371104272      0.921103615     -0.642702426
H       0.697359609     -0.597624157      1.871181409
H      -0.160886196      0.956508349      1.740055990
H      -0.271369364     -1.139935254     -0.397749800
           6
  t=        20.00000    5    2
C       0.007277241      0.021877333      0.004086191
N      -0.052697373     -0.026165822      1.337230058
H       0.372411759      0.954907949     -0.574419642
H       0.678333404     -0.623219710      1.854518743
H      -0.150768607      0.943650315      1.724062329
H      -0.254443226     -1.172225952     -0.360724690
           6
  t=        20.50000    5    2
C       0.003995269      0.018494603      0.006449420
N      -0.050334626     -0.020994978      1.330080893
H       0.375612094      0.983187521     -0.505953795
H       0.658258282     -0.643084998      1.835370736
H      -0.143774988      0.928148843      1.709907732
H      -0.238313363     -1.196706664     -0.324693022
           6
  t=        21.00000    5    2
C       0.000591877      0.014799989      0.008384937
N      -0.047689431     -0.016051354      1.323439955
H       0.380815010      1.005969417     -0.438567752
H       0.637616087     -0.657352265      1.814182285
H      -0.140007817      0.911617972      1.698534756
H      -0.222871272     -1.213387695     -0.290291515
           6
  t=        21.50000    5    2
C      -0.002926041      0.010806630      0.009871213
N      -0.044824661     -0.011450461      1.317329150
H       0.388154578      1.023321256     -0.373428828
H       0.617136012     -0.666372583      1.791604206
H      -0.139597865      0.895917199      1.691049584
H      -0.208057944     -1.222396602     -0.258157880
           6
  t=        22.00000    5    2
C      -0.006546338      0.006531166      0.010876272
N      -0.041819414     -0.007286167      1.311757952
H       0.397768482      1.035336993     -0.311602491
H       0.597782834     -0.670746470      1.768463682
H      -0.142699301      0.882889580      1.688583117
H      -0.193867280     -1.223963738     -0.228935646
           6
  t=        22.50000    5    2
C      -0.010248032      0.001992194      0.011363994
N      -0.038770480     -0.003598587      1.306736677
H       0.409769509      1.042140034     -0.254048655
H       0.580728994     -0.671345425      1.745717080
H      -0.149451359      0.873957004      1.692089445
H      -0.180350296     -1.218426985     -0.203288614
           6
  t=        23.00000    5    2
C      -0.013997575     -0.002787461      0.011302372
N      -0.035793335     -0.000345568      1.302291003
H       0.424212141      1.043878558     -0.201620662
H       0.567293611     -0.669290996      1.724383254
H      -0.159911200      0.869711353      1.702124804
H      -0.167618383     -1.206262310     -0.181914181
           6
  t=        23.50000    5    2
C      -0.017746256     -0.007773733      0.010673035
N      -0.033018356      0.002603969      1.298473247
H       0.441065875      1.040713151     -0.155070698
H       0.558824034     -0.665845811      1.705449260
H      -0.173983093      0.869697878      1.718682455
H      -0.155852627     -1.188139779     -0.165548688
           6
  t=        24.00000    5    2
C      -0.021429745     -0.012911185      0.009480908
N      -0.030579263      0.005445665      1.295365685
H       0.460207454      1.032800443     -0.115053158
H       0.556518490     -0.662201023      1.689742627
H      -0.191385296      0.872513642      1.741158492
H      -0.145317745     -1.165000357     -0.154963146
           6
  t=        24.50000    5    2
C      -0.024970685     -0.018113024      0.007762391
N      -0.028595432      0.008391494      1.293073614
H       0.481443339      1.020278602     -0.082116066
H       0.561227078     -0.659194611      1.677789495
H      -0.211677501      0.876173583      1.768466638
H      -0.136373057     -1.138137810     -0.150945860
           6
  t=        25.00000    5    2
C      -0.028283805     -0.023255150      0.005590050
N      -0.027154234      0.011619355      1.291710611
H       0.504553901      1.003265488     -0.056677152
H       0.573289112     -0.657063339      1.669705248
H      -0.234327603      0.878554242      1.799244095
H      -0.129471653     -1.109259222     -0.154273785
           6
  t=        25.50000    5    2
C      -0.031281185     -0.028176572      0.003071306
N      -0.026300818      0.015240456      1.291384141
H       0.529329998      0.981878369     -0.039011328
H       0.592453834     -0.655353233      1.665164159
H      -0.258772743      0.877741063      1.832054306
H      -0.125136047     -1.080483311     -0.165681917
           6
  t=        26.00000    5    2
C      -0.033874540     -0.032688047      0.000341449
N      -0.026038704      0.019290211      1.292187647
H       0.555580866      0.956265239     -0.029291334
H       0.617907514     -0.653031480      1.663468518
H      -0.284456243      0.872212789      1.865521122
H      -0.123920719     -1.054214985     -0.185832875
           6
  t=        26.50000    5    2
C      -0.035974356     -0.036595679     -0.002446870
N      -0.026340199      0.023736292      1.294196716
H       0.583138184      0.926624857     -0.027672692
H       0.648419139     -0.648726649      1.663689362
H      -0.310867023      0.860891621      1.898406047
H      -0.126388012     -1.032806142     -0.215271483
           6
  t=        27.00000    5    2
C      -0.037489647     -0.039746693     -0.005137500
N      -0.027161892      0.028497413      1.297464334
H       0.611882109      0.893201962     -0.034361437
H       0.682565823     -0.640980591      1.664818286
H      -0.337589982      0.843108542      1.929663247
H      -0.133096822     -1.017980284     -0.254332946
           6
  t=        27.50000    5    2
C      -0.038332194     -0.042087433     -0.007589524
N      -0.028458297      0.033467316      1.302013578
H       0.641781206      0.856263685     -0.049612658
H       0.718948895     -0.628435953      1.665883651
H      -0.364350371      0.818528845      1.958487672
H      -0.144574178     -1.010189701     -0.302983999
           6
  t=        28.00000    5    2
C      -0.038428777     -0.043704466     -0.009695674
N      -0.030187041      0.038538739      1.307823503
H       0.672923627      0.816078759     -0.073634044
H       0.756329129     -0.609949329      1.666031353
H      -0.391036388      0.787080938      1.984362047
H      -0.161241399     -1.008253855     -0.360631791
           6
  t=        28.50000    5    2
C      -0.037740929     -0.044822398     -0.011387202
N      -0.032302439      0.043621161      1.314804330
H       0.705508662      0.772929890     -0.106416883
H       0.793651001     -0.584661067      1.664593726
H      -0.417686100      0.748929310      2.007105011
H      -0.183296951     -1.009547522     -0.426007144
           6
  t=        29.00000    5    2
C      -0.036280158     -0.045754865     -0.012610312
N      -0.034744674      0.048645574      1.322765543
H       0.739765138      0.727175951     -0.147617633
H       0.829968145     -0.552068850      1.661156808
H      -0.444425673      0.704506895      2.026902080
H      -0.210591242     -1.010671582     -0.497218614
           6
  t=        29.50000    5    2
C      -0.034107831     -0.046840400     -0.013271875
N      -0.037436499      0.053559533      1.331388853
H       0.775781377      0.679414834     -0.196637941
H       0.864293962     -0.512184067      1.655604758
H      -0.471322573      0.654597032      2.044293372
H      -0.242501110     -1.008236361     -0.571975236
           6
  t=        30.00000    4    1
C      -0.031347496     -0.048413919     -0.013131117
N      -0.040301585      0.058328206      1.340190151
H       0.813242712      0.631158911     -0.253099781
H       0.895225945     -0.466213371      1.648222039
H      -0.497852870      0.600613018      2.060048573
H      -0.277422818     -0.999489069     -0.647849718
           6
  t=        30.50000    1    1
C      -0.028649300     -0.050898945     -0.012173710
N      -0.043357559      0.063319502      1.349347631
H       0.856693631      0.581390337     -0.321520347
H       0.923465315     -0.413980592      1.641323189
H      -0.524236813      0.540733859      2.076952914
H      -0.312395735     -0.981836123     -0.728071055
           6
  t=        31.00000    1    1
C      -0.025725022     -0.053513513     -0.011298666
N      -0.046168473      0.068165184      1.358625409
H       0.900600538      0.528144808     -0.391725941
H       0.949936953     -0.356760811      1.633902128
H      -0.553386965      0.478749644      2.094805625
H      -0.349387570     -0.960022518     -0.807624292
           6
  t=        31.50000    1    1
C      -0.022387472     -0.056334294     -0.010604242
N      -0.048215885      0.072523878      1.367413845
H       0.941937540      0.469785885     -0.460703705
H       0.970971847     -0.292000926      1.625901784
H      -0.587679806      0.415266050      2.114591053
H      -0.388759194     -0.929914505     -0.880809100
           6
  t=        32.00000    1    1
C      -0.018623334     -0.059388390     -0.010126223
N      -0.049395252      0.076446939      1.375463461
H       0.979208882      0.406565453     -0.526367486
H       0.985972598     -0.220358386      1.617762736
H      -0.627067336      0.350155093      2.136087325
H      -0.430076544     -0.891369410     -0.946037902
           6
  t=        32.50000    1    1
C      -0.014441351     -0.062700806     -0.009906352
N      -0.049696908      0.080018732      1.382634691
H       1.011236574      0.339058582     -0.586858842
H       0.994635021     -0.142677172      1.610034192
H      -0.670557131      0.282998709      2.158026187
H      -0.472880101     -0.844574718     -1.002013887
           6
  t=        33.00000    1    1
C      -0.009860425     -0.066308883     -0.009991065
N      -0.049213193      0.083330085      1.388874285
H       1.037174913      0.268076072     -0.640600851
H       0.997037822     -0.059902768      1.603333227
H      -0.716315013      0.213446300      2.178423328
H      -0.516728949     -0.789862518     -1.047653977
           6
  t=        33.50000    1    1
C      -0.004882538     -0.070288882     -0.010495604
N      -0.048142381      0.086464781      1.394206349
H       1.056566768      0.194498579     -0.686091284
H       0.993913360      0.027191887      1.598261599
H      -0.762030369      0.141336995      2.195113831
H      -0.561430473     -0.727435731     -1.081860016
           6
  t=        34.00000    1    1
C       0.000435330     -0.074620329     -0.011310832
N      -0.046696751      0.089437431      1.398546395
H       1.068872561      0.119304283     -0.722837935
H       0.985896543      0.117315283      1.595674195
H      -0.805100931      0.067423038      2.206300778
H      -0.606054313     -0.658180081     -1.104307727
           6
  t=        34.50000    1    1
C       0.006042750     -0.079313032     -0.012433149
N      -0.045063776      0.092238878      1.401893766
H       1.074053850      0.043565899     -0.750196253
H       0.973647380      0.209483535      1.595968769
H      -0.843446125     -0.007299804      2.210447421
H      -0.650097363     -0.582936142     -1.114536416
           6
  t=        35.00000    1    1
C       0.011866915     -0.084358727     -0.013846588
N      -0.043385158      0.094837821      1.404234959
H       1.072294154     -0.031650534     -0.767769402
H       0.957651375      0.302704207      1.599433399
H      -0.875451212     -0.081568158      2.206574577
H      -0.693007603     -0.502704407     -1.112254306
           6
  t=        35.50000    1    1
C       0.017822892     -0.089729509     -0.015529472
N      -0.041754819      0.097195144      1.405555256
H       1.063915155     -0.105338929     -0.775396997
H       0.938129161      0.395929182      1.606212020
H      -0.899950774     -0.153993871      2.194195442
H      -0.734176518     -0.418619711     -1.097332539
           6
  t=        36.00000    1    1
C       0.023820353     -0.095380482     -0.017459809
N      -0.040223133      0.099278280      1.405853772
H       1.049353984     -0.176605099     -0.773147972
H       0.914993823      0.488014383      1.616263179
H      -0.916166150     -0.223188391      2.173206826
H      -0.772957554     -0.331902841     -1.069807089
           6
  t=        36.50000    1    1
C       0.029765550     -0.101254591     -0.019609156
N      -0.038802539      0.101071922      1.405148752
H       1.029182089     -0.244705556     -0.761327933
H       0.887879223      0.577697989      1.629351287
H      -0.923652551     -0.287850841      2.143795613
H      -0.808711717     -0.243802985     -1.029915809
           6
  t=        37.00000    1    1
C       0.035557887     -0.107286503     -0.021929396
N      -0.037476073      0.102582217      1.403473322
H       1.004144262     -0.309059733     -0.740507891
H       0.856272172      0.663603053      1.645087029
H      -0.922271408     -0.346808045      2.106380846
H      -0.840847120     -0.155560257     -0.978150590
           6
  t=        37.50000    1    1
C       0.041083480     -0.113402936     -0.024342588
N      -0.036209051      0.103834263      1.400871398
H       0.975220579     -0.369257335     -0.711577532
H       0.819695633      0.744285205      1.662987298
H      -0.912172464     -0.399026531      2.061579827
H      -0.868842977     -0.068395339     -0.915294168
           6
  t=        38.00000    1    1
C       0.046207202     -0.119519773     -0.026737948
N      -0.034957304      0.104867387      1.397398089
H       0.943715873     -0.425095777     -0.675809796
H       0.777852090      0.818314351      1.682531561
H      -0.893795718     -0.443627483      2.010190963
H      -0.892271351      0.016492491     -0.842436277
           6
  t=        38.50000    1    1
C       0.050765979     -0.125536521     -0.028975131
N      -0.033668993      0.105732311      1.393122683
H       0.911352098     -0.476654341     -0.634911152
H       0.730694010      0.884356836      1.703203957
H      -0.867904002     -0.479923242      1.953198845
H      -0.910822434      0.097927188     -0.760972917
           6
  t=        39.00000    1    1
C       0.054571396     -0.131329398     -0.030894466
N      -0.032282164      0.106491988      1.388128039
H       0.880269037     -0.524400530     -0.590994937
H       0.678435292      0.941255374      1.724524945
H      -0.835648288     -0.507509362      1.891817942
H      -0.924316296      0.174780585     -0.672578176
           6
  t=        39.50000    1    1
C       0.057432412     -0.136751347     -0.032336418
N      -0.030720443      0.107227018      1.382503192
H       0.852826231     -0.569282891     -0.546413096
H       0.621491909      0.988134104      1.746070024
H      -0.798634500     -0.526449876      1.827578694
H      -0.932709012      0.246070219     -0.579142661
           6
  t=        40.00000    1    1
C       0.059188886     -0.141644966     -0.033171712
N      -0.028883111      0.108046656      1.376338986
H       0.831239040     -0.612683794     -0.503449178
H       0.560373607      1.024467550      1.767455718
H      -0.758993429     -0.537519534      1.762379439
H      -0.936087562      0.311086510     -0.482699150
           6
  t=        40.50000    4    1
C       0.059752747     -0.145867054     -0.033336755
N      -0.026635448      0.109099354      1.369730206
H       0.817054585     -0.656138824     -0.463929770
H       0.495595687      1.050102254      1.788303851
H      -0.719420015     -0.542440446      1.698468618
H      -0.934642606      0.369472906     -0.385365518
           6
  t=        41.00000    4    1
C       0.059721131     -0.149619904     -0.033175807
N      -0.024143563      0.110341628      1.363081423
H       0.807013475     -0.699398926     -0.427439375
H       0.430487165      1.070002099      1.808264993
H      -0.682224807     -0.545604352      1.637713253
H      -0.930935228      0.423421058     -0.290597039
           6
  t=        41.50000    4    1
C       0.058612620     -0.152516231     -0.032451739
N      -0.020888704      0.112218710      1.356206112
H       0.803991871     -0.745082395     -0.395905061
H       0.362275468      1.079942201      1.826725264
H      -0.651279269     -0.549303448      1.583284888
H      -0.922673154      0.471268788     -0.199256122
           6
  t=        42.00000    5    2
C       0.056632530     -0.154504801     -0.031276070
N      -0.016732700      0.114889535      1.349227226
H       0.805805011     -0.793632587     -0.369030689
H       0.290881856      1.080808088      1.843029365
H      -0.628676514     -0.557670469      1.537383117
H      -0.909864203      0.513888328     -0.113563699
           6
  t=        42.50000    5    2
C       0.054283859     -0.155250989     -0.029461582
N      -0.012208653      0.117921088      1.343064868
H       0.809563590     -0.837263309     -0.350257830
H       0.227156218      1.073475134      1.854056942
H      -0.618249262     -0.571818640      1.506679203
H      -0.895218185      0.545763478     -0.048642632
           6
  t=        43.00000    4    1
C       0.051297694     -0.155242807     -0.026519620
N      -0.006504009      0.121825916      1.336552853
H       0.815099253     -0.880963914     -0.335496791
H       0.161173494      1.057034200      1.862520623
H      -0.618936827     -0.592557606      1.482564170
H      -0.877790458      0.572291544      0.007698881
           6
  t=        43.50000    4    1
C       0.047390603     -0.154486398     -0.022305715
N       0.001269126      0.127093889      1.328742045
H       0.820010507     -0.932583067     -0.320825639
H       0.079506265      1.030005011      1.869790917
H      -0.627671551     -0.623590524      1.461798912
H      -0.853781755      0.599771336      0.064875073
           6
  t=        44.00000    4    1
C       0.043588798     -0.152754341     -0.017811392
N       0.009418222      0.132148266      1.321195707
H       0.818434598     -0.984029987     -0.307171658
H      -0.005484071      1.000437465      1.873551666
H      -0.636176780     -0.659204117      1.450520224
H      -0.826669619      0.625548835      0.110077878
           6
  t=        44.50000    1    1
C       0.040041525     -0.150139626     -0.013039144
N       0.017748504      0.136563930      1.313959618
H       0.808815572     -1.033728016     -0.293843529
H      -0.093521692      0.970524850      1.874318075
H      -0.641392403     -0.696621519      1.447451327
H      -0.797304823      0.650091173      0.142771178
           6
  t=        45.00000    1    1
C       0.036882979     -0.147053890     -0.008187344
N       0.026233283      0.140272660      1.307105254
H       0.791171444     -1.079637324     -0.281018682
H      -0.184542580      0.940863984      1.874009069
H      -0.643228492     -0.732454582      1.450731317
H      -0.767086350      0.673222714      0.164443262
           6
  t=        45.50000    1    1
C       0.034255338     -0.143524709     -0.003055589
N       0.034693782      0.143047276      1.300682188
H       0.763587063     -1.120647440     -0.268400736
H      -0.278259227      0.912530820      1.871867199
H      -0.638566244     -0.766624457      1.459317651
H      -0.736714232      0.696163062      0.173522778
           6
  t=        46.00000    1    1
C       0.032119843     -0.139620309      0.002365765
N       0.043050207      0.144742498      1.294828084
H       0.726523688     -1.155765976     -0.255909834
H      -0.373919789      0.885584597      1.867366300
H      -0.626370548     -0.797632203      1.472230016
H      -0.706866523      0.719192565      0.169408781
           6
  t=        46.50000    1    1
C       0.030412385     -0.135401245      0.008038688
N       0.051158357      0.145308099      1.289756474
H       0.680736664     -1.184044815     -0.243637941
H      -0.469908624      0.859312549      1.859387837
H      -0.605909669     -0.824376067      1.488777149
H      -0.677879008      0.742393026      0.151488949
           6
  t=        47.00000    1    1
C       0.029061163     -0.130912868      0.013916899
N       0.058820807      0.144756713      1.285683104
H       0.627125598     -1.204732137     -0.231861952
H      -0.563978822      0.832659936      1.846697299
H      -0.576691756     -0.846121513      1.508559105
H      -0.649792054      0.765697243      0.119228041
           6
  t=        47.50000    1    1
C       0.027962964     -0.126148984      0.019950796
N       0.065820912      0.143100679      1.282781907
H       0.566781827     -1.217346422     -0.220904616
H      -0.653658495      0.804791594      1.828353172
H      -0.538406744     -0.862340431      1.531420935
H      -0.622239863      0.788685595      0.072219216
           6
  t=        48.00000    1    1
C       0.027061622     -0.121406075      0.025973240
N       0.071732340      0.140494702      1.281280144
H       0.501299346     -1.220800023     -0.211439682
H      -0.734953927      0.775665258      1.804316652
H      -0.490521552     -0.872277360      1.555595766
H      -0.594750871      0.810937850      0.011774312
           6
  t=        48.50000    1    1
C       0.026161299     -0.116436138      0.032042304
N       0.076500276      0.136888077      1.281076333
H       0.432083957     -1.215814008     -0.203766419
H      -0.806906751      0.744813431      1.774439169
H      -0.433519865     -0.876033933      1.582316487
H      -0.566112131      0.831495797     -0.062173152
           6
  t=        49.00000    1    1
C       0.025158436     -0.111206532      0.038079342
N       0.079957934      0.132340791      1.282160277
H       0.360424858     -1.202993695     -0.198428764
H      -0.867989984      0.712370823      1.739142197
H      -0.367505676     -0.873465743      1.611426096
H      -0.535485387      0.849463488     -0.148265598
           6
  t=        49.50000    1    1
C       0.023944874     -0.105648080      0.043978611
N       0.081996107      0.126941185      1.284477573
H       0.287619754     -1.183456534     -0.195940528
H      -0.917172335      0.678618460      1.699100818
H      -0.292864468     -0.864644077      1.642741242
H      -0.502008952      0.863697549     -0.244465984
           6
  t=        50.00000    1    1
C       0.022414557     -0.099657142      0.049607660
N       0.082570860      0.120819053      1.287938531
H       0.214937453     -1.158879202     -0.196773491
H      -0.953853883      0.643895593      1.655152086
H      -0.210339000     -0.850005228      1.676058380
H      -0.464935561      0.872934234     -0.348112782
           6
  t=        50.50000    1    1
C       0.020476826     -0.093108763      0.054815259
N       0.081704853      0.114152979      1.292423555
H       0.143548072     -1.131452708     -0.201351463
H      -0.977807218      0.608554514      1.608245987
H      -0.121047948     -0.830497533      1.711198770
H      -0.423779452      0.875991495     -0.456091053
           6
  t=        51.00000    1    1
C       0.018073645     -0.085882843      0.059445517
N       0.079480375      0.107165149      1.297786005
H       0.074431194     -1.103680389     -0.210041420
H      -0.989160784      0.572956382      1.559438749
H      -0.026404782     -0.807610590      1.748068327
H      -0.378430629      0.871983979     -0.565102345
           6
  t=        51.50000    1    1
C       0.015195312     -0.077899405      0.063345366
N       0.076027438      0.100096487      1.303858298
H       0.008306213     -1.077981442     -0.223107406
H      -0.988453766      0.537496996      1.509937108
H       0.072028095     -0.783154063      1.786670160
H      -0.329197813      0.860444967     -0.671941424
           6
  t=        52.00000    1    1
C       0.011891062     -0.069170947      0.066352312
N       0.071527609      0.093165987      1.310459157
H      -0.054335615     -1.056091953     -0.240595123
H      -0.976873298      0.502665565      1.461266804
H       0.172557647     -0.758759180      1.827018601
H      -0.276801057      0.841358587     -0.773649154
           6
  t=        52.50000    1    1
C       0.008230979     -0.059846184      0.068268161
N       0.066280112      0.086455990      1.317439329
H      -0.112851806     -1.038426500     -0.262224310
H      -0.956912855      0.469441049      1.415321913
H       0.273162998     -0.734831019      1.868833285
H      -0.222360509      0.815192227     -0.867685874
           6
  t=        53.00000    1    1
C       0.004252152     -0.050079994      0.068878820
N       0.060500874      0.079950213      1.324827934
H      -0.166678457     -1.025562049     -0.287387995
H      -0.930467952      0.439009576      1.373102003
H       0.372650254     -0.710802659      1.910559938
H      -0.166792450      0.782840111     -0.951959285
           6
  t=        53.50000    1    1
C      -0.000001693     -0.040126780      0.067907004
N       0.054509481      0.073587167      1.332696281
H      -0.215049025     -1.017195152     -0.314949880
H      -0.900585995      0.412975387      1.335770457
H       0.469318720     -0.685869975      1.950313648
H      -0.111076382      0.745473932     -1.024573362
           6
  t=        54.00000    1    1
C      -0.004343004     -0.030230028      0.065464961
N       0.048718872      0.067258652      1.340831375
H      -0.258557661     -1.011927219     -0.344051167
H      -0.871926675      0.392039967      1.304733702
H       0.561296101     -0.658881031      1.986945680
H      -0.056056847      0.704244169     -1.085021683
           6
  t=        54.50000    1    1
C      -0.008703689     -0.020677190      0.061499174
N       0.043607429      0.060823738      1.349193599
H      -0.296791308     -1.008372429     -0.373480408
H      -0.849560152      0.377913667      1.280884278
H       0.646537807     -0.628933246      2.019058885
H      -0.002489714      0.660532877     -1.132823414
           6
  t=        55.00000    1    1
C      -0.013024984     -0.011721335      0.056005697
N       0.039595146      0.054172987      1.357726980
H      -0.329443019     -1.005269762     -0.402064462
H      -0.837975090      0.372102532      1.264678247
H       0.723293034     -0.595594819      2.045676725
H       0.049022301      0.615674991     -1.167806529
           6
  t=        55.50000    1    1
C      -0.017257748     -0.003569934      0.049032110
N       0.036935512      0.047260636      1.366348314
H      -0.356363917     -1.001601823     -0.428753230
H      -0.839620595      0.375418918      1.256264696
H       0.790216849     -0.558831232      2.066235893
H       0.098017167      0.570912404     -1.190017380
           6
  t=        56.00000    1    1
C      -0.021361951      0.003616660      0.040675587
N       0.035654326      0.040120697      1.374937617
H      -0.377590461     -0.996619108     -0.452664263
H      -0.854007874      0.387630221      1.255715599
H       0.846363530     -0.518855622      2.080496472
H       0.144153207      0.527378087     -1.199660396
           6
  t=        56.50000    1    1
C      -0.025303132      0.009719935      0.031078711
N       0.035579999      0.032855360      1.383341328
H      -0.393368665     -0.989812051     -0.473097815
H      -0.878080740      0.407495451      1.263117586
H       0.891130858     -0.475980242      2.088445466
H       0.187196236      0.486106936     -1.197073051
           6
  t=        57.00000    4    1
C      -0.029041144      0.014653204      0.020432649
N       0.036437326      0.025599137      1.391385260
H      -0.404279672     -0.980825131     -0.489534642
H      -0.907534161      0.433087211      1.278439646
H       0.924228206     -0.430445120      2.090232683
H       0.227058782      0.448074086     -1.182749341
           6
  t=        57.50000    5    2
C      -0.032481301      0.018628710      0.009041153
N       0.037895590      0.018466676      1.398814772
H      -0.413735794     -0.969130983     -0.501197933
H      -0.937895396      0.459306224      1.301366341
H       0.946253760     -0.381431213      2.086336449
H       0.265549926      0.412912299     -1.157707639
           6
  t=        58.00000    5    2
C      -0.035475310      0.021527992     -0.002601523
N       0.039609809      0.011756875      1.405332050
H      -0.422739827     -0.955093348     -0.507506712
H      -0.964788816      0.483513407      1.330778948
H       0.957417322     -0.330425826      2.077361147
H       0.302114648      0.382369199     -1.123761670
           6
  t=        58.50000    5    2
C      -0.038266401      0.023253748     -0.014737043
N       0.041428671      0.005431156      1.411183105
H      -0.427472247     -0.940031633     -0.509486596
H      -0.985491885      0.509029464      1.367512686
H       0.957485499     -0.278665507      2.063346097
H       0.335442718      0.357374620     -1.081301020
           6
  t=        59.00000    5    2
C      -0.040840671      0.023792440     -0.027049433
N       0.043141470     -0.000418794      1.416265807
H      -0.428675060     -0.924504825     -0.507441132
H      -0.997880908      0.534780084      1.410889621
H       0.947357930     -0.226667039      2.045016456
H       0.366014929      0.338965888     -1.032412623
           6
  t=        59.50000    5    2
C      -0.043209571      0.023135367     -0.039157792
N       0.044524375     -0.005697525      1.420479612
H      -0.427151651     -0.909286822     -0.501990587
H      -1.000341357      0.559832684      1.460219613
H       0.928539528     -0.175059620      2.023408804
H       0.394761521      0.328256094     -0.979960936
           6
  t=        60.00000    5    2
C      -0.045117861      0.021307651     -0.050281833
N       0.045261213     -0.010407826      1.423469850
H      -0.424815527     -0.896260973     -0.494255784
H      -0.991498853      0.583876051      1.514482284
H       0.902874450     -0.123762846      1.999845187
H       0.421731383      0.327099011     -0.927489665
           6
  t=        60.50000    5    2
C      -0.046674313      0.018262244     -0.060090331
N       0.045081148     -0.014477823      1.425194244
H      -0.422632742     -0.886193790     -0.484781463
H      -0.970725524      0.606224477      1.572553961
H       0.873664686     -0.073403670      1.976203890
H       0.449018967      0.337135365     -0.878565085
           6
  t=        61.00000    5    2
C      -0.047982474      0.013997416     -0.068260799
N       0.043671335     -0.017864324      1.425573284
H      -0.421504194     -0.880042424     -0.474442201
H      -0.937750362      0.626337716      1.633190088
H       0.845128498     -0.024424517      1.954880805
H       0.478615557      0.359725462     -0.836199052
           6
  t=        61.50000    5    2
C      -0.049099160      0.008577430     -0.074600588
N       0.040726130     -0.020567609      1.424532921
H      -0.422160175     -0.878732390     -0.464229537
H      -0.892737566      0.643820016      1.694971885
H       0.821893338      0.023065011      1.938427782
H       0.511711429      0.395538864     -0.801798047
           6
  t=        62.00000    5    2
C      -0.049986331      0.002158754     -0.079106677
N       0.036040448     -0.022636186      1.422060137
H      -0.425049850     -0.882954399     -0.455085731
H      -0.836376708      0.658473909      1.756336153
H       0.807818224      0.069275435      1.928791706
H       0.547982904      0.444064199     -0.774658583
           6
  t=        62.50000    5    2
C      -0.050512226     -0.005010454     -0.081936316
N       0.029613181     -0.024148023      1.418258182
H      -0.430255597     -0.892975228     -0.447756049
H      -0.769962408      0.670385719      1.815670538
H       0.804636599      0.114394841      1.926455377
H       0.585520054      0.503422375     -0.752468114
           6
  t=        63.00000    5    2
C      -0.050510750     -0.012631006     -0.083318599
N       0.021685188     -0.025179153      1.413352520
H      -0.437458280     -0.908508622     -0.442691704
H      -0.695413073      0.680026214      1.871468975
H       0.811441000      0.158083655      1.930163632
H       0.621505353      0.570689989     -0.732419072
           6
  t=        63.50000    5    2
C      -0.049856937     -0.020414642     -0.083469841
N       0.012681786     -0.025793678      1.407618403
H      -0.445952903     -0.928667825     -0.440043662
H      -0.615181916      0.688385189      1.922572636
H       0.825419888      0.199275399      1.937592527
H       0.653101152      0.642515341     -0.712126522
           6
  t=        64.00000    5    2
C      -0.048584552     -0.028247344     -0.082434573
N       0.003189917     -0.026177673      1.400951695
H      -0.454320560     -0.951218035     -0.440299524
H      -0.531764223      0.698432426      1.970399853
H       0.842260795      0.237481461      1.948173841
H       0.677943118      0.715410302     -0.689975879
           6
  t=        64.50000    5    2
C      -0.046582944     -0.035863394     -0.080506110
N      -0.006689548     -0.026287834      1.393755613
H      -0.462001652     -0.975095804     -0.442249821
H      -0.446576949      0.709442908      2.013103125
H       0.861572509      0.271340313      1.959114734
H       0.694560801      0.786632389     -0.664646250
           6
  t=        65.00000    5    2
C      -0.044018285     -0.043086360     -0.077940550
N      -0.016479033     -0.026103698      1.386383945
H      -0.467574153     -0.999020282     -0.445252795
H      -0.362400054      0.722774309      2.049754708
H       0.880759809      0.298182086      1.968349438
H       0.702250323      0.853827896     -0.635652221
           6
  t=        65.50000    5    2
C      -0.041024840     -0.049872175     -0.074963230
N      -0.025859143     -0.025526086      1.379093846
H      -0.470129939     -1.021463166     -0.448786724
H      -0.281345661      0.738720212      2.079873841
H       0.898434646      0.316095595      1.974765692
H       0.700764617      0.915183398     -0.602812428
           6
  t=        66.00000    5    2
C      -0.037746291     -0.056253734     -0.071809537
N      -0.034548781     -0.024362277      1.372136087
H      -0.469079748     -1.040948427     -0.452363996
H      -0.205775555      0.756704750      2.103036739
H       0.914011320      0.323357148      1.977492188
H       0.690267035      0.969236359     -0.566000991
           6
  t=        66.50000    5    2
C      -0.034362879     -0.062378467     -0.068718766
N      -0.042259205     -0.022281982      1.365696821
H      -0.463922225     -1.055941435     -0.455442093
H      -0.138621532      0.775328737      2.119204263
H       0.927638205      0.318241371      1.975831288
H       0.671173844      1.014742994     -0.524760895
           6
  t=        67.00000    5    2
C      -0.031101812     -0.068538454     -0.065904795
N      -0.048704963     -0.018798942      1.359823010
H      -0.454220187     -1.064700711     -0.457414998
H      -0.083359668      0.791924668      2.129594868
H       0.940199582      0.299738354      1.968784199
H       0.644378851      1.050360716     -0.478023696
           6
  t=        67.50000    5    2
C      -0.028113143     -0.074956459     -0.063532072
N      -0.053677349     -0.013484713      1.354499815
H      -0.439766379     -1.066279693     -0.457793766
H      -0.042751644      0.804203865      2.135490868
H       0.952667676      0.267226111      1.955582420
H       0.610351056      1.074753102     -0.424627927
           6
  t=        68.00000    5    2
C      -0.024992819     -0.080905780     -0.061270327
N      -0.057533544     -0.007234902      1.350119937
H      -0.421993548     -1.063108734     -0.458092490
H      -0.012535246      0.815674506      2.133638302
H       0.962478240      0.222521851      1.936542392
H       0.568977056      1.088816281     -0.369510760
           6
  t=        68.50000    5    2
C      -0.021690166     -0.086242334     -0.059040513
N      -0.060344587     -0.000167555      1.346778095
H      -0.401627940     -1.055884766     -0.458840465
H       0.007637471      0.825555038      2.124516254
H       0.969279233      0.167288859      1.911068012
H       0.521370865      1.092290043     -0.314283160
           6
  t=        69.00000    5    2
C      -0.018163217     -0.090897045     -0.056792425
N      -0.062187890      0.007639828      1.344509546
H      -0.379706908     -1.045297959     -0.460543252
H       0.017941472      0.832719163      2.109211353
H       0.973126705      0.103760887      1.878643301
H       0.468914697      1.085011441     -0.260097858
           6
  t=        69.50000    5    2
C      -0.014292325     -0.094798749     -0.054370405
N      -0.063289871      0.015953423      1.343233663
H      -0.358046095     -1.032057077     -0.463809951
H       0.019449951      0.835970527      2.089536967
H       0.974436713      0.036148723      1.838644855
H       0.413656300      1.067076319     -0.208268844
           6
  t=        70.00000    5    2
C      -0.009957717     -0.097830173     -0.051489211
N      -0.063919955      0.024416434      1.342783039
H      -0.338392513     -1.017233652     -0.469289960
H       0.013941140      0.835224706      2.066722939
H       0.973548833     -0.031705240      1.791113511
H       0.357542208      1.039359314     -0.160487718
           6
  t=        70.50000    5    2
C      -0.005151768     -0.099940194     -0.047941427
N      -0.064230749      0.032756445      1.343033012
H      -0.321747750     -1.002223327     -0.477574301
H       0.002706809      0.831345955      2.041462318
H       0.970680117     -0.098002884      1.736796061
H       0.302094792      1.003770042     -0.118340899
           6
  t=        71.00000    5    2
C       0.000027890     -0.101163944     -0.043605350
N      -0.064329905      0.040715427      1.343841803
H      -0.308502436     -0.988447851     -0.489109952
H      -0.012924141      0.825815260      2.014847432
H       0.966074681     -0.161663234      1.677107130
H       0.248789895      0.963171734     -0.083367481
           6
  t=        71.50000    5    2
C       0.005410056     -0.101762461     -0.038393478
N      -0.064293653      0.048111831      1.345056508
H      -0.298651260     -0.976841066     -0.504353692
H      -0.031893815      0.820092112      1.988078594
H       0.960221859     -0.222077378      1.613529364
H       0.199172624      0.922060485     -0.056711062
           6
  t=        72.00000    5    2
C       0.010821589     -0.102255398     -0.032343562
N      -0.064176893      0.054820521      1.346533326
H      -0.292009156     -0.967569618     -0.523338069
H      -0.053433067      0.815827397      1.962774454
H       0.953585250     -0.278790577      1.547082542
H       0.154649499      0.886423410     -0.038529968
           6
  t=        72.50000    5    2
C       0.016128190     -0.103238197     -0.025605441
N      -0.064034591      0.060709595      1.348144556
H      -0.288211563     -0.960274446     -0.545581603
H      -0.076777539      0.814922590      1.940846427
H       0.946542706     -0.331373494      1.478684389
H       0.116076571      0.862493144     -0.028576412
           6
  t=        73.00000    5    2
C       0.021263398     -0.105209188     -0.018382707
N      -0.063894030      0.065645206      1.349789646
H      -0.286854404     -0.954341902     -0.570223733
H      -0.101316425      0.819218977      1.924058909
H       0.939165919     -0.379399370      1.409141956
H       0.083537672      0.855181268     -0.026461147
           6
  t=        73.50000    5    2
C       0.026220320     -0.108418242     -0.010878719
N      -0.063769642      0.069544297      1.351388898
H      -0.287515353     -0.949032068     -0.596240832
H      -0.126477118      0.829829368      1.913595109
H       0.931384555     -0.422417282      1.339309706
H       0.056390789      0.866313304     -0.031716777
           6
  t=        74.00000    5    2
C       0.031024903     -0.112810887     -0.003276959
N      -0.063680635      0.072430896      1.352899746
H      -0.289788313     -0.943579714     -0.622601015
H      -0.151672731      0.846580453      1.909720530
H       0.923158657     -0.460045052      1.270037209
H       0.033640844      0.893932729     -0.043714136
           6
  t=        74.50000    5    2
C       0.035713551     -0.118123048      0.004281612
N      -0.063672388      0.074453649      1.354315373
H      -0.293325634     -0.937286507     -0.648401650
H      -0.176241960      0.867950476      1.911800046
H       0.914609494     -0.492081409      1.201958942
H       0.014354673      0.933452042     -0.061582087
           6
  t=        75.00000    5    2
C       0.040337213     -0.123976213      0.011742874
N      -0.063807321      0.075796764      1.355675305
H      -0.298048207     -0.929677135     -0.672966034
H      -0.199643309      0.891738107      1.918482331
H       0.906019022     -0.518576599      1.135327144
H      -0.002109656      0.979581176     -0.084803053
           6
  t=        75.50000    5    2
C       0.044883794     -0.129886285      0.018955187
N      -0.064084222      0.076570482      1.357131128
H      -0.304028058     -0.920443727     -0.695451886
H      -0.221736191      0.915747823      1.927794262
H       0.897569505     -0.539638207      1.070837019
H      -0.015875768      1.027019611     -0.113242008
           6
  t=        76.00000    5    2
C       0.049296032     -0.135495306      0.025705251
N      -0.064510324      0.076956812      1.358808742
H      -0.311032790     -0.909351225     -0.714980404
H      -0.242318298      0.937753770      1.938004459
H       0.889544215     -0.555630915      1.009021635
H      -0.026879366      1.071331742     -0.145789026
           6
  t=        76.50000    5    2
C       0.053557350     -0.140625132      0.031949750
N      -0.065187625      0.077187991      1.360767372
H      -0.318812453     -0.896249159     -0.730988859
H      -0.261123695      0.955887795      1.947805872
H       0.882961835     -0.567465821      0.949136128
H      -0.035040428      1.109798478     -0.181262056
           6
  t=        77.00000    5    2
C       0.057664066     -0.145179657      0.037729574
N      -0.066248837      0.077478640      1.363038032
H      -0.327168546     -0.881127211     -0.743115774
H      -0.277963924      0.968838566      1.956241510
H       0.879230001     -0.576357333      0.889816348
H      -0.040265754      1.140808873     -0.218619240
           6
  t=        77.50000    5    2
C       0.061608831     -0.149099291      0.043125365
N      -0.067825472      0.078001390      1.365624890
H      -0.335959856     -0.864119695     -0.751149595
H      -0.292705519      0.975832880      1.962688568
H       0.879910796     -0.583612302      0.829545012
H      -0.042477337      1.163469178     -0.256950109
           6
  t=        78.00000    5    2
C       0.065376803     -0.152335280      0.048228097
N      -0.070032497      0.078875788      1.368506939
H      -0.345125591     -0.845501827     -0.754999961
H      -0.305223395      0.976559711      1.966831951
H       0.886545002     -0.590442316      0.766957858
H      -0.041627729      1.177335707     -0.295457049
           6
  t=        78.50000    5    2
C       0.068948774     -0.154834966      0.053118203
N      -0.072960244      0.080163765      1.371641643
H      -0.354711087     -0.825688018     -0.754675742
H      -0.315370393      0.971101825      1.968640137
H       0.900495629     -0.597810382      0.701017383
H      -0.037697933      1.182215617     -0.333428810
           6
  t=        79.00000    5    2
C       0.072312188     -0.156536129      0.057854031
N      -0.076668888      0.081869336      1.374970456
H      -0.364885100     -0.805229024     -0.750272557
H      -0.322981335      0.959902638      1.968342609
H       0.922757185     -0.606316965      0.631051917
H      -0.030693291      1.178020084     -0.370208894
           6
  t=        79.50000    5    2
C       0.075482338     -0.157372503      0.062471107
N      -0.081182403      0.083944022      1.378426140
H      -0.375938376     -0.784792008     -0.741979857
H      -0.327934969      0.943764144      1.966405674
H       0.953690366     -0.616139187      0.556658403
H      -0.020654012      1.164675961     -0.405159875
           6
  t=        80.00000    5    2
C       0.078529832     -0.157295269      0.066992279
N      -0.086480775      0.086299221      1.381936196
H      -0.388266056     -0.765096213     -0.730105952
H      -0.330279412      0.923850929      1.963513547
H       0.992724158     -0.627023529      0.477552677
H      -0.007684607      1.142134182     -0.437638208
           6
  t=        80.50000    5    2
C       0.081597277     -0.156299599      0.071437584
N      -0.092496277      0.088817308      1.385413884
H      -0.402342638     -0.746826314     -0.715080049
H      -0.330344227      0.901688746      1.960592429
H       1.038215452     -0.638315380      0.393565113
H       0.008023072      1.110475882     -0.467004643
           6
  t=        81.00000    5    2
C       0.084883942     -0.154430387      0.075821047
N      -0.099120432      0.091352255      1.388741272
H      -0.418670807     -0.730592835     -0.697384026
H      -0.328719888      0.879159554      1.958856952
H       1.087642983     -0.649046519      0.304847976
H       0.026203584      1.070024943     -0.492672599
           6
  t=        81.50000    5    2
C       0.088604733     -0.151766235      0.080136339
N      -0.106221413      0.093730595      1.391765583
H      -0.437698923     -0.716940368     -0.677436924
H      -0.326122217      0.858428317      1.959784015
H       1.138076481     -0.658116509      0.212062427
H       0.046560856      1.021406650     -0.514163003
           6
  t=        82.00000    5    2
C       0.092945657     -0.148407239      0.084347595
N      -0.113664676      0.095772468      1.394317767
H      -0.459728447     -0.706342755     -0.655492808
H      -0.323230653      0.841675629      1.964930966
H       1.186694601     -0.664520850      0.116356843
H       0.068812996      0.965600601     -0.531151632
           6
  t=        82.50000    5    2
C       0.098032463     -0.144484875      0.088395986
N      -0.121330316      0.097335727      1.396245451
H      -0.484834105     -0.699145234     -0.631589391
H      -0.320545488      0.830611121      1.975601614
H       1.231148366     -0.667518316      0.019176842
H       0.092720710      0.904041698     -0.543532629
           6
  t=        83.00000    5    2
C       0.103919474     -0.140192805      0.092222069
N      -0.129121492      0.098367410      1.397447232
H      -0.512811711     -0.695453278     -0.605585013
H      -0.318305749      0.825929383      1.992465304
H       1.269691705     -0.666693790     -0.077942122
H       0.118072559      0.838767472     -0.551535733
           6
  t=        83.50000    5    2
C       0.110588662     -0.135804010      0.095797684
N      -0.136958452      0.098928992      1.397893121
H      -0.543146695     -0.695046892     -0.577286841
H      -0.316514743      0.827029659      2.015301039
H       1.301165017     -0.661986214     -0.173491483
H       0.144623449      0.772493822     -0.555889357
           6
  t=        84.00000    5    2
C       0.117939745     -0.131631473      0.099147833
N      -0.144773554      0.099166003      1.397626483
H      -0.575005802     -0.697511817     -0.546518517
H      -0.314967807      0.832234614      2.042985014
H       1.325029599     -0.653717242     -0.266071491
H       0.172128342      0.708510055     -0.557946054
           6
  t=        84.50000    5    2
C       0.125784327     -0.127997313      0.102366713
N      -0.152522160      0.099256433      1.396741432
H      -0.607300866     -0.702437286     -0.513044905
H      -0.313216888      0.839320684      2.073778443
H       1.341376894     -0.642443954     -0.354551868
H       0.200582576      0.650548414     -0.559761668
           6
  t=        85.00000    5    2
C       0.133866384     -0.125233007      0.105635883
N      -0.160176452      0.099380920      1.395345686
H      -0.638817427     -0.709377290     -0.476647252
H      -0.310696592      0.846000554      2.105741739
H       1.350735100     -0.628750205     -0.438152386
H       0.230340020      0.602471043     -0.564054059
           6
  t=        85.50000    5    2
C       0.141895592     -0.123621863      0.109190648
N      -0.167705720      0.099700588      1.393536171
H      -0.668343891     -0.717788123     -0.437284714
H      -0.306924472      0.850258289      2.137035874
H       1.353859941     -0.613183388     -0.516387377
H       0.261981034      0.567432169     -0.573659196
           6
  t=        86.00000    5    2
C       0.149588651     -0.123301658      0.113222649
N      -0.175063379      0.100339695      1.391393659
H      -0.694786432     -0.727061221     -0.395159755
H      -0.301630617      0.850524400      2.166068065
H       1.351603176     -0.596279931     -0.588969586
H       0.296016063      0.546843117     -0.590473175
           6
  t=        86.50000    5    2
C       0.156716786     -0.124202934      0.117776469
N      -0.182183491      0.101373504      1.388991872
H      -0.717265974     -0.736604886     -0.350675693
H      -0.294818077      0.845743191      2.191518707
H       1.344817275     -0.578624931     -0.655705720
H       0.332524450      0.539880256     -0.614521548
           6
  t=        87.00000    5    2
C       0.163143142     -0.126075651      0.122712476
N      -0.188989257      0.102822618      1.386412194
H      -0.735163114     -0.745925159     -0.304344619
H      -0.286730751      0.835391861      2.212318263
H       1.334251050     -0.560891448     -0.716393523
H       0.370944288      0.543982038     -0.643893126
           6
  t=        87.50000    5    2
C       0.168826411     -0.128596204      0.127763360
N      -0.195411369      0.104666051      1.383747389
H      -0.748075148     -0.754657317     -0.256757503
H      -0.277701187      0.819425553      2.227670147
H       1.320451946     -0.543764844     -0.770762663
H       0.410186857      0.555952421     -0.675576759
           6
  t=        88.00000    5    2
C       0.173788964     -0.131475325      0.132639602
N      -0.201396821      0.106868800      1.381084499
H      -0.755755005     -0.762553803     -0.208640398
H      -0.268017439      0.798135995      2.237143669
H       1.303762964     -0.527815591     -0.818485062
H       0.448947275      0.572864672     -0.706505958
           6
  t=        88.50000    5    2
C       0.178082343     -0.134500020      0.137103280
N      -0.206903334      0.109396441      1.378484987
H      -0.758118968     -0.769489917     -0.160880119
H      -0.257910510      0.772047754      2.240750314
H       1.284395030     -0.513467794     -0.859208622
H       0.485960771      0.592435866     -0.734178536
           6
  t=        89.00000    5    2
C       0.181770096     -0.137527095      0.140988834
N      -0.211893554      0.112213550      1.375973498
H      -0.755286089     -0.775487966     -0.114485493
H      -0.247580329      0.741901756      2.238991233
H       1.262486471     -0.501029910     -0.892579144
H       0.520132322      0.613043017     -0.756812201
           6
  t=        89.50000    5    2
C       0.184923349     -0.140463526      0.144195803
N      -0.216333835      0.115277548      1.373530839
H      -0.747604837     -0.780734159     -0.070526695
H      -0.237202431      0.708677399      2.232912048
H       1.238132896     -0.490721261     -0.918251932
H       0.550575952      0.633596273     -0.773264199
           6
  t=        90.00000    5    2
C       0.187621621     -0.143248260      0.146673544
N      -0.220196177      0.118533786      1.371088612
H      -0.735658185     -0.785579507     -0.030074058
H      -0.226912708      0.673606873      2.224160790
H       1.211402777     -0.482683870     -0.935898930
H       0.576606195      0.653388844     -0.782886964
           6
  t=        90.50000    5    2
C       0.189953974     -0.145838765      0.148406297
N      -0.223461559      0.121914947      1.368528262
H      -0.720246179     -0.790525058      0.005859270
H      -0.216779116      0.638138433      2.214995353
H       1.182351161     -0.476988434     -0.945215519
H       0.597711279      0.671973074     -0.785394969
           6
  t=        91.00000    5    2
C       0.192018148     -0.148201965      0.149400874
N      -0.226123452      0.125347618      1.365691306
H      -0.702344696     -0.796190023      0.036370086
H      -0.206771779      0.603801708      2.208143751
H       1.151036919     -0.473641918     -0.945930234
H       0.613523832      0.689071760     -0.780763569
           6
  t=        91.50000    5    2
C       0.193916451     -0.150308937      0.149677312
N      -0.228189947      0.128767846      1.362408310
H      -0.683038736     -0.803260113      0.060711594
H      -0.196750007      0.571947351      2.206412125
H       1.117546282     -0.472599909     -0.937820349
H       0.623796204      0.704519749     -0.769159248
           6
  t=        92.00000    5    2
C       0.195747859     -0.152133261      0.149262702
N      -0.229682622      0.132142279      1.358547187
H      -0.663431548     -0.812412995      0.078330143
H      -0.186488922      0.543411619      2.212030048
H       1.082024488     -0.473783881     -0.920736156
H       0.628382851      0.718228727     -0.750894927
           6
  t=        92.50000    5    2
C       0.197596988     -0.153652514      0.148188921
N      -0.230631939      0.135483421      1.354065081
H      -0.644537452     -0.824224828      0.088889515
H      -0.175749910      0.518267274      2.225947472
H       1.044717096     -0.477102585     -0.894639403
H       0.627229640      0.730170128     -0.726406715
           6
  t=        93.00000    5    2
C       0.199520475     -0.154852560      0.146495084
N      -0.231070474      0.138846679      1.349035480
H      -0.627176396     -0.839065547      0.092279115
H      -0.164369911      0.495840192      2.247471920
H       1.006026038     -0.482478127     -0.859662855
H       0.620369807      0.740371966     -0.696245544
           6
  t=        93.50000    5    2
C       0.201532041     -0.155731886      0.144235493
N      -0.231027616      0.142308488      1.343632981
H      -0.611890840     -0.857007339      0.088604507
H      -0.152320018      0.475004034      2.274489020
H       0.966589789     -0.489886702     -0.816204126
H       0.607923373      0.748928923     -0.661077497
           6
  t=        94.00000    5    2
C       0.203588793     -0.156301621      0.141493572
N      -0.230527821      0.145938403      1.338086852
H      -0.598916098     -0.877773997      0.078165673
H      -0.139709821      0.454569545      2.304108915
H       0.927396794     -0.499427584     -0.765066483
H       0.590097329      0.756019405     -0.621688254
           6
  t=        94.50000    5    2
C       0.205578906     -0.156577138      0.138400194
N      -0.229590690      0.149778802      1.332631785
H      -0.588212817     -0.900747779      0.061426339
H      -0.126758977      0.433571798      2.333356698
H       0.889939771     -0.511446295     -0.707649026
H       0.567183114      0.761930365     -0.578986730
           6
  t=        95.00000    5    2
C       0.207311797     -0.156557875      0.135152318
N      -0.228230602      0.153837143      1.327474763
H      -0.579548445     -0.925040182      0.038981038
H      -0.113772423      0.411383312      2.359642849
H       0.856393939     -0.526731878     -0.646148477
H       0.539546856      0.767079479     -0.534002269
           6
  t=        95.50000    5    2
C       0.208516715     -0.156194966      0.132020779
N      -0.226452380      0.158086588      1.322779695
H      -0.572600824     -0.949613981      0.011535024
H      -0.101161379      0.387687448      2.380975337
H       0.829715981     -0.546768133     -0.583629577
H       0.507611783      0.772021072     -0.487885527
           6
  t=        96.00000    4    1
C       0.208868160     -0.155330354      0.129350800
N      -0.224213156      0.162453934      1.318644824
H      -0.567095040     -0.973500508     -0.020028713
H      -0.089762331      0.362359004      2.395976641
H       0.813260735     -0.573930844     -0.523665017
H       0.471864680      0.777422548     -0.442044839
           6
  t=        96.50000    5    2
C       0.208002625     -0.153827676      0.127423780
N      -0.221511359      0.166799676      1.315201681
H      -0.562641540     -0.995872936     -0.056077567
H      -0.079622738      0.336652019      2.403609969
H       0.810352376     -0.610550748     -0.469176209
H       0.432945623      0.783848510     -0.397332684
           6
  t=        97.00000    5    2
C       0.205875784     -0.151632197      0.126238247
N      -0.218453270      0.171056243      1.312589921
H      -0.559519325     -1.015410449     -0.094680339
H      -0.071196394      0.310322304      2.403729047
H       0.823122068     -0.658168272     -0.421658699
H       0.391460783      0.792049871     -0.355961370
           6
  t=        97.50000    5    2
C       0.202428520     -0.148957464      0.125638491
N      -0.214974485      0.175223965      1.310821260
H      -0.557463604     -1.031061981     -0.135780745
H      -0.064725081      0.283321143      2.396431217
H       0.851298187     -0.716386062     -0.378498869
H       0.347467790      0.803165001     -0.319006892
           6
  t=        98.00000    5    2
C       0.197906454     -0.146096277      0.125296442
N      -0.211128563      0.179260677      1.309953900
H      -0.556015507     -1.042111517     -0.178702064
H      -0.060270666      0.255873831      2.382287033
H       0.891551709     -0.782402133     -0.336656463
H       0.301718266      0.817522796     -0.287659188
           6
  t=        98.50000    5    2
C       0.192652791     -0.143401784      0.124907281
N      -0.206963788      0.183120436      1.309989350
H      -0.554741440     -1.048097986     -0.222819069
H      -0.057838202      0.228234854      2.362328364
H       0.939289430     -0.852050261     -0.293217897
H       0.254961278      0.835084684     -0.262880468
           6
  t=        99.00000    5    2
C       0.186983172     -0.141175801      0.124261359
N      -0.202529658      0.186760643      1.310861850
H      -0.553218604     -1.048737879     -0.267523727
H      -0.057293231      0.200644921      2.338158364
H       0.990172960     -0.921167901     -0.246397026
H       0.207907406      0.855349466     -0.245258136
           6
  t=        99.50000    5    2
C       0.181128227     -0.139604511      0.123242707
N      -0.197878594      0.190145910      1.312430823
H      -0.551061277     -1.043881100     -0.312206862
H      -0.058339729      0.173285814      2.312044489
H       1.040839248     -0.986410902     -0.195575036
H       0.161220232      0.877349660     -0.234953575
           6
  t=       100.00000    5    2
C       0.175230597     -0.138756404      0.121798510
N      -0.193066409      0.193253062      1.314483920
H      -0.547947040     -1.033487637     -0.356255550
H      -0.060535404      0.146218225      2.286907646
H       1.088963503     -1.045426277     -0.140928651
H       0.115536936      0.899769073     -0.231744581
