           6
  t=         0.00000    9    3
C       0.005099342     -0.025550179      0.042122612
N      -0.001422973     -0.002108607      1.288659409
H       0.899282694      0.187923824     -0.344213334
H       0.779439799     -0.027414369      1.749893562
H      -0.791560306      0.119694440      1.989513819
H      -0.928107876      0.053359425     -0.529810853
           6
  t=         0.50000    9    3
C       0.001958503     -0.026853387      0.038436812
N      -0.002135625     -0.004077929      1.291512799
H       0.910055714      0.198581398     -0.314047452
H       0.795990903     -0.012926145      1.769640902
H      -0.761006964      0.129140167      1.935907539
H      -0.938685841      0.061647284     -0.521877645
           6
  t=         1.00000    9    3
C      -0.001710828     -0.028346987      0.032063674
N      -0.003720764     -0.006212159      1.297098635
H       0.929491812      0.210039291     -0.292635082
H       0.823477057      0.004192834      1.794170206
H      -0.732090261      0.137739117      1.880929264
H      -0.948809977      0.071909106     -0.514568779
           6
  t=         1.50000   12    3
C      -0.005645909     -0.030029925      0.023307688
N      -0.005446965     -0.008596197      1.304988485
H       0.955911643      0.221805774     -0.279971243
H       0.856972395      0.024331979      1.820359063
H      -0.711232764      0.146250394      1.830313329
H      -0.958743611      0.084655164     -0.508173868
           6
  t=         2.00000   12    3
C      -0.009549686     -0.031866517      0.012535613
N      -0.006320422     -0.011148069      1.314345324
H       0.987968151      0.233833279     -0.272239382
H       0.892136540      0.045275897      1.844351029
H      -0.707994852      0.156559780      1.789921747
H      -0.970584225      0.098698814     -0.501252088
           6
  t=         2.50000   12    3
C      -0.013053162     -0.033880138      0.000214698
N      -0.005927707     -0.014154311      1.324808661
H       1.021907257      0.244976014     -0.272516444
H       0.925268611      0.069263383      1.865412470
H      -0.726597124      0.169616938      1.764983263
H      -0.982794124      0.116256914     -0.495776254
           6
  t=         3.00000   12    3
C      -0.015913409     -0.036080629     -0.013134392
N      -0.004140841     -0.017607673      1.335994782
H       1.055656419      0.254851988     -0.280416958
H       0.953848500      0.096061624      1.882407533
H      -0.767039703      0.185607088      1.755661650
H      -0.995451230      0.137775495     -0.492027781
           6
  t=         3.50000   12    3
C      -0.018047998     -0.038481822     -0.026983067
N      -0.001282593     -0.021373340      1.347736346
H       1.087923378      0.263314692     -0.295436615
H       0.976019360      0.125288456      1.894770709
H      -0.823003704      0.203100038      1.758330594
H      -1.008222124      0.163504971     -0.490287863
           6
  t=         4.00000   12    3
C      -0.019545694     -0.041081882     -0.040877596
N       0.002195546     -0.025257015      1.359955639
H       1.118046122      0.270342248     -0.316809937
H       0.990259656      0.156439712      1.902295109
H      -0.885830979      0.219936516      1.768317011
H      -1.020251331      0.193409160     -0.490764756
           6
  t=         4.50000   12    3
C      -0.020593697     -0.043845922     -0.054500962
N       0.005959199     -0.029083786      1.372588640
H       1.145584905      0.275869788     -0.343518693
H       0.995310169      0.188945790      1.904971519
H      -0.948168082      0.234241098      1.781759191
H      -1.030318406      0.227152261     -0.493490876
           6
  t=         5.00000    9    3
C      -0.021387667     -0.046703972     -0.067665706
N       0.009824632     -0.032735312      1.385556937
H       1.170021934      0.279720149     -0.374449325
H       0.990325861      0.222266508      1.902975821
H      -1.005086738      0.244832039      1.796059069
H      -1.037106259      0.264155999     -0.498300162
           6
  t=         5.50000    9    3
C      -0.022120185     -0.049513840     -0.080334923
N       0.013624887     -0.036215211      1.398421068
H       1.192186294      0.282542260     -0.406444269
H       0.980327422      0.255281526      1.898919143
H      -1.056929765      0.253155711      1.809814651
H      -1.041509007      0.301802609     -0.503892691
           6
  t=         6.00000    9    3
C      -0.022852768     -0.052208178     -0.092369134
N       0.017327000     -0.039470780      1.411347414
H       1.209910533      0.283158981     -0.440618404
H       0.960503680      0.288635621      1.891289421
H      -1.098752218      0.257250923      1.822154690
H      -1.040302545      0.341051483     -0.510742781
           6
  t=         6.50000    9    3
C      -0.023646778     -0.054680558     -0.103693087
N       0.020841721     -0.042528947      1.424165201
H       1.222681221      0.281350151     -0.476167998
H       0.931747031      0.322363726      1.880832748
H      -1.129651799      0.257285200      1.832626819
H      -1.032797400      0.381027248     -0.518471131
           6
  t=         7.00000    9    3
C      -0.024556198     -0.056835780     -0.114223981
N       0.024082604     -0.045436006      1.436685972
H       1.230222061      0.276954052     -0.512351561
H       0.895470484      0.356714109      1.868485612
H      -1.149291820      0.253511538      1.840927586
H      -1.018623084      0.420900045     -0.526819660
           6
  t=         7.50000    9    3
C      -0.025637647     -0.058591411     -0.123879143
N       0.026960892     -0.048261956      1.448708347
H       1.232474721      0.269866486     -0.548424114
H       0.853643824      0.392248260      1.855420003
H      -1.157763313      0.246237288      1.846798573
H      -0.997692682      0.459896313     -0.535633246
           6
  t=         8.00000    9    3
C      -0.026945577     -0.059879144     -0.132590969
N       0.029382399     -0.051105421      1.460035423
H       1.229541113      0.260041892     -0.583611240
H       0.808732470      0.429917479      1.842994397
H      -1.155478633      0.235815415      1.849959075
H      -0.970204134      0.497314340     -0.544833171
           6
  t=         8.50000    9    3
C      -0.028517275     -0.060645912     -0.140323392
N       0.031254650     -0.054091175      1.470505102
H       1.221613098      0.247484906     -0.617122012
H       0.763415105      0.471028645      1.832554541
H      -1.143069206      0.222630014      1.850072122
H      -0.936667718      0.532560300     -0.554396373
           6
  t=         9.00000    9    3
C      -0.030357105     -0.060853870     -0.147078060
N       0.032513986     -0.057351119      1.480024168
H       1.208925439      0.232226872     -0.648196979
H       0.720019692      0.516971497      1.825082437
H      -1.121310800      0.207068694      1.846746990
H      -0.897933937      0.565207601     -0.564358767
           6
  t=         9.50000    9    3
C      -0.032428227     -0.060478079     -0.152885461
N       0.033167069     -0.060987341      1.488594967
H       1.191751965      0.214293801     -0.676170108
H       0.679858023      0.568665647      1.820796129
H      -1.091114587      0.189499033      1.839565318
H      -0.855208439      0.595064505     -0.574855639
           6
  t=        10.00000    9    3
C      -0.034651118     -0.059500318     -0.157794424
N       0.033315905     -0.065041759      1.496336731
H       1.170432694      0.193680052     -0.700529961
H       0.642890643      0.626000818      1.818860839
H      -1.053574039      0.170283215      1.828097411
H      -0.810062502      0.622250249     -0.586209213
           6
  t=        10.50000    9    3
C      -0.036968518     -0.057946867     -0.161901976
N       0.033166992     -0.069476074      1.503481667
H       1.145579846      0.170519401     -0.720963507
H       0.607969398      0.687704108      1.817661615
H      -1.010174650      0.149764188      1.812024579
H      -0.764025627      0.647341742     -0.598869969
           6
  t=        11.00000    9    3
C      -0.039479682     -0.055960335     -0.165258881
N       0.033062698     -0.074059771      1.510096839
H       1.118344910      0.145330460     -0.737282933
H       0.573576149      0.751056441      1.816341886
H      -0.963664347      0.127995582      1.791723049
H      -0.717558405      0.670981008     -0.612872729
           6
  t=        11.50000    9    3
C      -0.042229824     -0.053638816     -0.167831272
N       0.033387432     -0.078556389      1.516190083
H       1.089865252      0.118391872     -0.749550770
H       0.538418005      0.812853260      1.813926835
H      -0.917947820      0.105182154      1.767949418
H      -0.671403392      0.693771728     -0.628448892
           6
  t=        12.00000    9    3
C      -0.045241159     -0.051055621     -0.169573390
N       0.034574463     -0.082782466      1.521744737
H       1.061297349      0.089840001     -0.758036858
H       0.501662551      0.870183062      1.809545203
H      -0.878309645      0.081776120      1.741828133
H      -0.626355551      0.716360628     -0.645895123
           6
  t=        12.50000    9    3
C      -0.048537039     -0.048263189     -0.170449986
N       0.037091798     -0.086613332      1.526709230
H       1.033780321      0.059712157     -0.763116528
H       0.462938177      0.920747046      1.802663104
H      -0.851132297      0.058411854      1.714717541
H      -0.583024526      0.739266996     -0.665363721
           6
  t=        13.00000    9    3
C      -0.052144126     -0.045281842     -0.170454444
N       0.041340538     -0.089959758      1.531030483
H       1.008364904      0.027929083     -0.765167690
H       0.422208899      0.962899249      1.793093368
H      -0.842307395      0.035601788      1.687708286
H      -0.541789024      0.762705828     -0.686721517
           6
  t=        13.50000    9    3
C      -0.056084188     -0.042090707     -0.169625976
N       0.047476135     -0.092732987      1.534700002
H       0.985933424     -0.005742094     -0.764458040
H       0.379651390      0.995564400      1.780927642
H      -0.854574061      0.013351753      1.661050915
H      -0.502869619      0.786497678     -0.709458115
           6
  t=        14.00000    9    3
C      -0.060360786     -0.038628904     -0.168060730
N       0.055299325     -0.094833597      1.537762027
H       0.967109830     -0.041716488     -0.761030993
H       0.335576864      1.018130488      1.766468925
H      -0.885858983     -0.008874487      1.634101525
H      -0.466463764      0.810099597     -0.732659040
           6
  t=        14.50000    9    3
C      -0.064944291     -0.034811397     -0.165912607
N       0.064349484     -0.096174744      1.540276081
H       0.952146531     -0.080581021     -0.754614483
H       0.290387973      1.030370976      1.750194761
H      -0.930464456     -0.031727855      1.605849784
H      -0.432876948      0.832756838     -0.755058164
           6
  t=        15.00000    9    3
C      -0.069761381     -0.030559022     -0.163382358
N       0.074109193     -0.096708428      1.542281013
H       0.940812113     -0.122998954     -0.744603353
H       0.244548595      1.032418519      1.732745067
H      -0.981845576     -0.055546804      1.575426782
H      -0.402570354      0.853728932     -0.775181074
           6
  t=        15.50000    9    3
C      -0.074695706     -0.025835254     -0.160697259
N       0.084142006     -0.096431607      1.543789749
H       0.932340910     -0.169514025     -0.730172323
H       0.198563711      1.024788871      1.714912803
H      -1.034531535     -0.080269481      1.542280419
H      -0.376075327      0.872504845     -0.791567438
           6
  t=        16.00000    9    3
C      -0.079600554     -0.020674525     -0.158089559
N       0.094114606     -0.095378627      1.544802503
H       0.925514798     -0.220331638     -0.710505440
H       0.152969165      1.008421721      1.697630282
H      -1.084518622     -0.105582968      1.506205378
H      -0.353828963      0.888924565     -0.802997778
           6
  t=        16.50000    9    3
C      -0.084309118     -0.015199009     -0.155776584
N       0.103749065     -0.093596575      1.545312064
H       0.918832741     -0.275213336     -0.685100149
H       0.108332391      0.984599844      1.682028519
H      -1.128796508     -0.131153054      1.467434513
H      -0.336032501      0.903241598     -0.808650690
           6
  t=        17.00000    9    3
C      -0.088608047     -0.009311662     -0.154299212
N       0.113216976     -0.091387287      1.545169142
H       0.910577827     -0.335175075     -0.652106989
H       0.062133643      0.956738280      1.669736622
H      -1.168013813     -0.155013500      1.427818550
H      -0.322725159      0.914128952     -0.805341019
           6
  t=        17.50000    8    2
C      -0.092420181     -0.003504149     -0.153724949
N       0.122037721     -0.088699772      1.544670195
H       0.898795525     -0.397238838     -0.613043565
H       0.017297324      0.926104152      1.661305711
H      -1.198351978     -0.178455559      1.387019728
H      -0.312936250      0.923778421     -0.795079840
           6
  t=        18.00000    8    2
C      -0.095433017      0.002338101     -0.153597561
N       0.129776549     -0.085749922      1.543344432
H       0.881790563     -0.461274471     -0.568139525
H      -0.024749907      0.896580071      1.656179732
H      -1.217852963     -0.203820181      1.347936979
H      -0.306035497      0.932153700     -0.778871363
           6
  t=        18.50000    8    2
C      -0.097914018      0.007891969     -0.154565066
N       0.136548754     -0.082753615      1.541783020
H       0.860429787     -0.525008814     -0.518943713
H      -0.064934317      0.870346705      1.655378534
H      -1.225996958     -0.229231871      1.310608040
H      -0.300900604      0.939772251     -0.756722333
           6
  t=        19.00000    8    2
C      -0.099804911      0.013020412     -0.156570643
N       0.142277005     -0.079882612      1.539941928
H       0.834395221     -0.587472676     -0.466754691
H      -0.103730645      0.849995545      1.659567105
H      -1.222298977     -0.254769760      1.276344199
H      -0.296843243      0.947170794     -0.729375278
           6
  t=        19.50000    8    2
C      -0.101065666      0.017593082     -0.159498200
N       0.146919046     -0.077239514      1.537778348
H       0.803543583     -0.647809248     -0.412947011
H      -0.141638825      0.837102444      1.669256954
H      -1.206594801     -0.280539629      1.246160786
H      -0.293273895      0.955000077     -0.697769972
           6
  t=        20.00000    5    2
C      -0.101671899      0.021483853     -0.163194785
N       0.150438593     -0.074826610      1.535261439
H       0.767882519     -0.705272411     -0.358922039
H      -0.178897448      0.831799778      1.684752710
H      -1.178917149     -0.306635488      1.220823132
H      -0.289715135      0.964009138     -0.662967643
           6
  t=        20.50000    5    2
C      -0.101523812      0.024675059     -0.167003603
N       0.152547460     -0.072470750      1.531996167
H       0.727462861     -0.759819655     -0.306100665
H      -0.212682290      0.833859022      1.706471649
H      -1.139472520     -0.335480342      1.200334141
H      -0.286019608      0.974611564     -0.626299216
           6
  t=        21.00000    5    2
C      -0.100706737      0.026959964     -0.171246992
N       0.153413723     -0.070090893      1.528371233
H       0.682614627     -0.810311074     -0.255826643
H      -0.244951452      0.839998998      1.733845931
H      -1.088468891     -0.364642054      1.185774005
H      -0.281670525      0.987852017     -0.588495999
           6
  t=        21.50000    5    2
C      -0.099230401      0.028265055     -0.175777245
N       0.152972113     -0.067507718      1.524412527
H       0.633708548     -0.856333771     -0.209407843
H      -0.274812825      0.847642033      1.766438434
H      -1.026377070     -0.393982022      1.177554683
H      -0.276437253      1.004140480     -0.550343409
           6
  t=        22.00000    5    2
C      -0.097118670      0.028564074     -0.180477814
N       0.151188211     -0.064555614      1.520166860
H       0.581235946     -0.897616941     -0.168048183
H      -0.301356038      0.854351222      1.803623708
H      -0.954025928     -0.423302293      1.175994813
H      -0.270130189      1.023456642     -0.512368847
           6
  t=        22.50000    5    2
C      -0.094413811      0.027888018     -0.185272759
N       0.148099400     -0.061098675      1.515713627
H       0.525794955     -0.934035124     -0.132780412
H      -0.323844602      0.858078284      1.844597098
H      -0.872906677     -0.452403724      1.181192434
H      -0.262608904      1.045266825     -0.474840289
           6
  t=        23.00000    5    2
C      -0.091181559      0.026324387     -0.190128921
N       0.143868299     -0.057025046      1.511189199
H       0.468065858     -0.965596383     -0.104388134
H      -0.341824404      0.857234123      1.888335674
H      -0.785680290     -0.481273715      1.192725761
H      -0.253823628      1.068559538     -0.437819015
           6
  t=        23.50000    5    2
C      -0.087515207      0.024009280     -0.195042282
N       0.138840538     -0.052215841      1.506816015
H       0.408778079     -0.992435122     -0.083333792
H      -0.355139457      0.850689916      1.933515462
H      -0.696835601     -0.510574084      1.209195058
H      -0.243862389      1.091987517     -0.401257368
           6
  t=        24.00000    5    2
C      -0.083532664      0.021123318     -0.200000342
N       0.133555736     -0.046489413      1.502900467
H       0.348668098     -1.014841057     -0.069755666
H      -0.363856355      0.837801706      1.978487198
H      -0.612958140     -0.542560655      1.227998243
H      -0.232903283      1.114065732     -0.365171662
           6
  t=        24.50000    5    2
C      -0.079360536      0.017881739     -0.204954330
N       0.128634083     -0.039560536      1.499765508
H       0.288422918     -1.033279270     -0.063633414
H      -0.368197900      0.818407509      2.021520040
H      -0.541523813     -0.581704981      1.246038946
H      -0.221044293      1.133367025     -0.329822981
           6
  t=        25.00000    5    2
C      -0.075116091      0.014497839     -0.209831361
N       0.124542911     -0.031124280      1.497644994
H       0.228641151     -1.048315559     -0.065004404
H      -0.368580989      0.792726689      2.061181738
H      -0.487843989     -0.633214185      1.261162521
H      -0.208252719      1.148668402     -0.295704163
           6
  t=        25.50000    5    2
C      -0.070897289      0.011147814     -0.214546344
N       0.121376386     -0.021102773      1.496589179
H       0.169816357     -1.060520550     -0.074026710
H      -0.365643266      0.761304272      2.096532644
H      -0.451962777     -0.699306854      1.273340738
H      -0.194482350      1.159034176     -0.263400654
           6
  t=        26.00000    5    2
C      -0.066779608      0.007958629     -0.219003186
N       0.118889150     -0.009810593      1.496470066
H       0.112324714     -1.070409638     -0.090917236
H      -0.360211419      0.725042404      2.127163143
H      -0.429078920     -0.776900741      1.284412732
H      -0.179776171      1.163854446     -0.233490785
           6
  t=        26.50000    5    2
C      -0.062814855      0.005010071     -0.223097383
N       0.116758406      0.002177049      1.497084262
H       0.056396511     -1.078400931     -0.115850566
H      -0.353271012      0.685225065      2.153192884
H      -0.413165424     -0.859544050      1.296550425
H      -0.164303953      1.162853716     -0.206509870
           6
  t=        27.00000    5    2
C      -0.059029916      0.002339460     -0.226722350
N       0.114776414      0.014264567      1.498231135
H       0.002083395     -1.084771068     -0.148863386
H      -0.345957488      0.643473668      2.175276125
H      -0.399636051     -0.940799984      1.311138699
H      -0.148361627      1.156081331     -0.182941789
           6
  t=        27.50000    5    2
C      -0.055426899     -0.000055884     -0.229777355
N       0.112878980      0.025966070      1.499726666
H      -0.050745746     -1.089611579     -0.189789162
H      -0.339532077      0.601619847      2.194579390
H      -0.385782900     -1.015994183      1.328630716
H      -0.132347696      1.143905889     -0.163215325
           6
  t=        28.00000    8    2
C      -0.051987578     -0.002219031     -0.232175370
N       0.111096944      0.036926280      1.501395122
H      -0.102356495     -1.092792744     -0.238230848
H      -0.335298366      0.561494948      2.212653996
H      -0.370224121     -1.082335760      1.348850308
H      -0.116720373      1.127024598     -0.147697220
           6
  t=        28.50000    8    2
C      -0.048695434     -0.004195844     -0.233902352
N       0.109324657      0.046805123      1.503109631
H      -0.153338011     -1.093831266     -0.293153877
H      -0.333689999      0.525468447      2.230943415
H      -0.350756364     -1.138525904      1.371260229
H      -0.101388951      1.106557100     -0.136732670
           6
  t=        29.00000    8    2
C      -0.045505486     -0.006156548     -0.234870707
N       0.107807517      0.055555645      1.504701008
H      -0.203667558     -1.092230003     -0.354119211
H      -0.336342585      0.493767464      2.250993611
H      -0.328723720     -1.183940601      1.395318746
H      -0.087341705      1.083834319     -0.130457186
           6
  t=        29.50000    8    2
C      -0.042393904     -0.008273139     -0.235076872
N       0.106582389      0.063111158      1.506097640
H      -0.253472213     -1.087186896     -0.420089663
H      -0.343619690      0.466783175      2.273396482
H      -0.304073858     -1.218538262      1.420427675
H      -0.074936289      1.060595949     -0.128949089
           6
  t=        30.00000    8    2
C      -0.039350270     -0.010749034     -0.234550667
N       0.105643691      0.069465544      1.507302870
H      -0.302708861     -1.077791944     -0.489859703
H      -0.355306002      0.444320833      2.297776223
H      -0.276841067     -1.242517527      1.446020891
H      -0.064443311      1.038832460     -0.132163356
           6
  t=        30.50000    8    2
C      -0.036379572     -0.013797756     -0.233352471
N       0.104948963      0.074649707      1.508387106
H      -0.351164445     -1.063141226     -0.562091486
H      -0.370707182      0.425819111      2.322895308
H      -0.247102951     -1.256168141      1.471577572
H      -0.056043214      1.020603959     -0.139938845
           6
  t=        31.00000    8    2
C      -0.033500974     -0.017611360     -0.231566783
N       0.104434272      0.078709298      1.509462573
H      -0.398485659     -1.042452540     -0.635359788
H      -0.388860088      0.410605963      2.347001197
H      -0.214962547     -1.259784277      1.496618477
H      -0.049832929      1.007746965     -0.152022151
           6
  t=        31.50000    8    2
C      -0.030744588     -0.022324211     -0.229294897
N       0.104031452      0.081689104      1.510655587
H      -0.444224111     -1.015158358     -0.708208866
H      -0.408753503      0.398086901      2.368220499
H      -0.180544851     -1.253615102      1.520695399
H      -0.045841407      1.001515176     -0.168096438
           6
  t=        32.00000    8    2
C      -0.028147724     -0.027983325     -0.226650323
N       0.103682022      0.083624761      1.512088052
H      -0.487883387     -0.980960343     -0.779219005
H      -0.429491101      0.387837735      2.384850517
H      -0.144002239     -1.237833789      1.543380592
H      -0.044052216      1.002272270     -0.187793202
           6
  t=        32.50000    8    2
C      -0.025752139     -0.034537367     -0.223759578
N       0.103347337      0.084538378      1.513872015
H      -0.528959206     -0.939840142     -0.847081000
H      -0.450388359      0.379629056      2.395507456
H      -0.105524311     -1.212508730      1.564265996
H      -0.044430420      1.009379287     -0.210680203
           6
  t=        33.00000    8    2
C      -0.023604065     -0.041848227     -0.220767406
N       0.103017455      0.084433501      1.516115028
H      -0.566970481     -0.892026199     -0.910679143
H      -0.471037916      0.373415489      2.399163493
H      -0.065342506     -1.177563407      1.582995493
H      -0.046944401      1.021339795     -0.236260104
           6
  t=        33.50000    8    2
C      -0.021760374     -0.049714573     -0.217839266
N       0.102720189      0.083289081      1.518926876
H      -0.601488414     -0.837921068     -0.969176071
H      -0.491389960      0.369280308      2.395129470
H      -0.023702517     -1.132751989      1.599386647
H      -0.051536365      1.036122507     -0.264054008
           6
  t=        34.00000    8    2
C      -0.020304075     -0.057888993     -0.215143438
N       0.102521223      0.081074702      1.522400606
H      -0.632165863     -0.778026300     -1.022029578
H      -0.511819199      0.367258091      2.383051864
H       0.019227098     -1.077888869      1.613674347
H      -0.057934444      1.051485475     -0.293774600
           6
  t=        34.50000    5    2
C      -0.019274040     -0.066090999     -0.212760274
N       0.102470307      0.077981983      1.526457662
H      -0.659348058     -0.713745499     -1.069723001
H      -0.532845076      0.366838270      2.364130952
H       0.063214954     -1.015110990      1.626790336
H      -0.065271000      1.065477667     -0.325022373
           6
  t=        35.00000    5    2
C      -0.018747251     -0.074405010     -0.210787372
N       0.102420488      0.074271437      1.531161790
H      -0.683101426     -0.644166352     -1.110894763
H      -0.554285959      0.367928141      2.337110673
H       0.109886390     -0.946677912      1.637789509
H      -0.072328110      1.076924564     -0.356681344
           6
  t=        35.50000    5    2
C      -0.018929484     -0.082256830     -0.209366039
N       0.102624028      0.070148621      1.536369817
H      -0.702356140     -0.571392264     -1.145060704
H      -0.577351514      0.370012153      2.302930529
H       0.157818597     -0.877232306      1.649422723
H      -0.078598049      1.083394838     -0.389254220
           6
  t=        36.00000    5    2
C      -0.019746058     -0.089801638     -0.208732041
N       0.103028671      0.066151382      1.542118257
H      -0.717469014     -0.495608544     -1.172302500
H      -0.602072627      0.373318823      2.262110354
H       0.207623904     -0.813790710      1.662996537
H      -0.084468560      1.086236490     -0.422185839
           6
  t=        36.50000    5    2
C      -0.021002107     -0.097337361     -0.209091809
N       0.103527308      0.063155671      1.548337034
H      -0.729421590     -0.415688612     -1.192896925
H      -0.628815734      0.376903956      2.216040851
H       0.260710323     -0.766862802      1.681785526
H      -0.090831723      1.087153387     -0.456433111
           6
  t=        37.00000    5    2
C      -0.022686336     -0.104287335     -0.210573701
N       0.103823253      0.061985766      1.554966695
H      -0.739311952     -0.333619077     -1.207885044
H      -0.657485676      0.380272918      2.166121550
H       0.320694156     -0.747690027      1.707701628
H      -0.096313138      1.081549195     -0.491912010
           6
  t=        37.50000    5    2
C      -0.025113959     -0.110161118     -0.213083791
N       0.103808117      0.062789512      1.561555600
H      -0.746123498     -0.253646388     -1.216337785
H      -0.688356178      0.382517279      2.113157738
H       0.389328379     -0.757642086      1.741160199
H      -0.098149458      1.068054653     -0.525615405
           6
  t=        38.00000    5    2
C      -0.028395911     -0.114857558     -0.216464075
N       0.103681188      0.064928090      1.567958826
H      -0.749480849     -0.177744490     -1.218618794
H      -0.721886548      0.383129905      2.057858658
H       0.464543229     -0.787246364      1.780750421
H      -0.095635109      1.047349831     -0.556345779
           6
  t=        38.50000    4    1
C      -0.032627213     -0.118356454     -0.220431276
N       0.103843615      0.067542599      1.574151356
H      -0.748663220     -0.107518094     -1.215806774
H      -0.758307705      0.382246599      2.000337254
H       0.541621225     -0.824616386      1.823416173
H      -0.088984757      1.020710452     -0.583106566
           6
  t=        39.00000    4    1
C      -0.037374496     -0.120726803     -0.224834514
N       0.104073785      0.069833506      1.579864867
H      -0.746128899     -0.043407473     -1.206725723
H      -0.796076800      0.381606981      1.942016777
H       0.618980612     -0.860806608      1.867806571
H      -0.077782091      0.989822199     -0.605214494
           6
  t=        39.50000    4    1
C      -0.042364177     -0.122042190     -0.229926010
N       0.104397164      0.071639209      1.585161172
H      -0.745420850      0.013257115     -1.190839519
H      -0.833983971      0.378265194      1.885792910
H       0.692542627     -0.890088778      1.912954316
H      -0.059226589      0.956354439     -0.622989747
           6
  t=        40.00000    4    1
C      -0.047655716     -0.122398540     -0.235555276
N       0.104985697      0.072878286      1.590132592
H      -0.747076789      0.061540004     -1.169424596
H      -0.871108021      0.371132470      1.831519931
H       0.759495899     -0.910055418      1.957333644
H      -0.032571457      0.922197599     -0.636558992
           6
  t=        40.50000    4    1
C      -0.053200810     -0.121950555     -0.241536622
N       0.105826658      0.073531397      1.594767051
H      -0.752241660      0.100974776     -1.143430204
H      -0.905959190      0.359612950      1.779489122
H       0.818275176     -0.919691198      1.999956874
H       0.003005436      0.889509346     -0.646319782
           6
  t=        41.00000    4    1
C      -0.058935984     -0.120863450     -0.247672039
N       0.106843915      0.073612972      1.599015938
H      -0.762233434      0.131393498     -1.113655159
H      -0.936974187      0.343346411      1.730172163
H       0.867967580     -0.918749255      2.040129189
H       0.048473655      0.860337665     -0.652932380
           6
  t=        41.50000    4    1
C      -0.064798029     -0.119284253     -0.253768691
N       0.107941816      0.073144632      1.602811976
H      -0.778338958      0.152978881     -1.080707232
H      -0.962744802      0.322193484      1.684176213
H       0.908033384     -0.907348062      2.077326260
H       0.104827995      0.836207910     -0.657233136
           6
  t=        42.00000    1    1
C      -0.070723286     -0.117306736     -0.259662158
N       0.109029385      0.072143773      1.606082954
H      -0.801575550      0.166312319     -1.044965259
H      -0.982153824      0.296226812      1.642180283
H       0.938156678     -0.885779015      2.111122447
H       0.172790528      0.817632280     -0.660051007
           6
  t=        42.50000    1    1
C      -0.076545636     -0.115017185     -0.265269871
N       0.109932594      0.070466827      1.608718983
H      -0.832811972      0.172491006     -1.005914497
H      -0.994228957      0.267327820      1.604478297
H       0.958928805     -0.853721603      2.141239795
H       0.252106431      0.804333813     -0.661372986
           6
  t=        43.00000    1    1
C      -0.082239595     -0.112251856     -0.270503597
N       0.110702493      0.068267933      1.610700136
H      -0.871749837      0.172447708     -0.964220135
H      -0.998683448      0.234194328      1.572174786
H       0.969342325     -0.812176828      2.167192505
H       0.342185270      0.793591581     -0.661926328
           6
  t=        43.50000    1    1
C      -0.087646254     -0.108862992     -0.275360135
N       0.111315565      0.065548463      1.611981933
H      -0.917768936      0.167389667     -0.919796350
H      -0.995422307      0.197269134      1.545885503
H       0.969280663     -0.761559026      2.188622842
H       0.440863077      0.782391504     -0.661474970
           6
  t=        44.00000    1    1
C      -0.092573815     -0.104691775     -0.279867113
N       0.111772546      0.062313056      1.612535023
H      -0.969677374      0.158464567     -0.872510045
H      -0.984712722      0.157048967      1.526134508
H       0.958713621     -0.702370604      2.205201924
H       0.544951405      0.767636106     -0.659610397
           6
  t=        44.50000    1    1
C      -0.096831636     -0.099617618     -0.284059169
N       0.112094645      0.058576929      1.612341077
H      -1.025785994      0.146674861     -0.822213900
H      -0.967216050      0.114051914      1.513333939
H       0.937782265     -0.635278300      2.216687768
H       0.650716738      0.746824352     -0.655983007
           6
  t=        45.00000    1    1
C      -0.100270514     -0.093584510     -0.287961221
N       0.112316040      0.054376501      1.611383393
H      -1.084023434      0.132828873     -0.768788133
H      -0.944042004      0.068784399      1.507758266
H       0.906966036     -0.561229182      2.223047910
H       0.754466620      0.718415623     -0.650425813
           6
  t=        45.50000    1    1
C      -0.102806326     -0.086601163     -0.291580696
N       0.112468568      0.049783801      1.609629794
H      -1.142100131      0.117545598     -0.712201369
H      -0.916815516      0.021699963      1.509513051
H       0.867374711     -0.481611660      2.224699235
H       0.852982598      0.681828729     -0.642957109
           6
  t=        46.00000    1    1
C      -0.104420870     -0.078730266     -0.294907776
N       0.112554649      0.044924293      1.607006128
H      -1.197694750      0.101321954     -0.652584364
H      -0.887721156     -0.026858122      1.518491063
H       0.821200803     -0.398435490      2.222934682
H       0.943685081      0.637236422     -0.633718499
           6
  t=        46.50000    1    1
C      -0.105231487     -0.070074422     -0.297723259
N       0.112489173      0.039922291      1.603139576
H      -1.247957670      0.084630926     -0.590010211
H      -0.859514402     -0.076694328      1.534655699
H       0.772228562     -0.313891506      2.220797666
H       1.025275374      0.585655446     -0.623073606
           6
  t=        47.00000    1    1
C      -0.105278831     -0.060709197     -0.299958935
N       0.112076681      0.035006772      1.597703745
H      -1.291089504      0.067693276     -0.525100553
H      -0.835006909     -0.127911415      1.557690982
H       0.726145045     -0.231057713      2.223195618
H       1.096278512      0.527764035     -0.611269370
           6
  t=        47.50000    1    1
C      -0.104616806     -0.050724727     -0.301538090
N       0.111039097      0.030365511      1.590268707
H      -1.325645340      0.050708851     -0.458652090
H      -0.816661594     -0.180797324      1.587183314
H       0.689548336     -0.152224657      2.236658050
H       1.155619925      0.464405105     -0.598564865
           6
  t=        48.00000    1    1
C      -0.103299859     -0.040214066     -0.302373276
N       0.109180133      0.026028701      1.580501327
H      -1.350541789      0.033836339     -0.391590647
H      -0.805849148     -0.235670666      1.622691929
H       0.666879441     -0.077436016      2.266405685
H       1.202521523      0.396470668     -0.585226772
           6
  t=        48.50000    1    1
C      -0.101377200     -0.029269069     -0.302366955
N       0.106552426      0.021859054      1.568459207
H      -1.365036633      0.017183153     -0.324934451
H      -0.802248747     -0.292582390      1.663693505
H       0.657477581     -0.004637817      2.312291589
H       1.236435583      0.324851576     -0.571528310
           6
  t=        49.00000    1    1
C      -0.098890796     -0.017980304     -0.301414853
N       0.103385793      0.017685825      1.554630652
H      -1.368700590      0.000807863     -0.259762827
H      -0.803816033     -0.351023359      1.709414645
H       0.656533308      0.068179876      2.368415808
H       1.257004476      0.250420904     -0.557743049
           6
  t=        49.50000    1    1
C      -0.095875953     -0.006438772     -0.299411035
N       0.099878844      0.013406470      1.539677146
H      -1.361395848     -0.015271867     -0.197191927
H      -0.807433792     -0.409861835      1.758682068
H       0.658638822      0.141517757      2.426879620
H       1.264041799      0.174036877     -0.544135076
           6
  t=        50.00000    1    1
C      -0.092362468      0.005262083     -0.296252725
N       0.096110405      0.008983693      1.524197874
H      -1.343267667     -0.031072318     -0.138359694
H      -0.809846752     -0.467563752      1.809939561
H       0.659961790      0.214636959      2.481077749
H       1.257529401      0.096551435     -0.530953964
           6
  t=        50.50000    1    1
C      -0.088374577      0.017026830     -0.291844488
N       0.092075400      0.004412871      1.508653429
H      -1.314758654     -0.046645772     -0.084408807
H      -0.808355464     -0.522521574      1.861418442
H       0.658443551      0.286339156      2.526622085
H       1.237628242      0.018808133     -0.518436260
           6
  t=        51.00000    1    1
C      -0.083929331      0.028762861     -0.286102983
N       0.087742601     -0.000297215      1.493380664
H      -1.276659093     -0.062102484     -0.036439491
H      -0.801081433     -0.573298156      1.911330564
H       0.653253546      0.355465369      2.560957104
H       1.204717555     -0.058380258     -0.506810717
           6
  t=        51.50000    1    1
C      -0.079035248      0.040386621     -0.278962859
N       0.083090508     -0.005131038      1.478627677
H      -1.230190605     -0.077641153      0.004571533
H      -0.786933256     -0.618727167      1.957998188
H       0.644251124      0.421075446      2.582739539
H       1.159468372     -0.134262106     -0.496304890
           6
  t=        52.00000    1    1
C      -0.073696513      0.051828101     -0.270383861
N       0.078123221     -0.010065970      1.464585870
H      -1.177101981     -0.093569532      0.037838432
H      -0.765458632     -0.657921848      1.999916056
H       0.631635722      0.482451938      2.591365686
H       1.102970587     -0.208179752     -0.487162699
           6
  t=        52.50000    1    1
C      -0.067922086      0.063039007     -0.260353240
N       0.072873203     -0.015069947      1.451412615
H      -1.119775713     -0.110317338      0.062781494
H      -0.736651914     -0.690246855      2.035781861
H       0.615751477      0.539044868      2.586683294
H       1.036912586     -0.279659351     -0.479688263
           6
  t=        53.00000    1    1
C      -0.061729187      0.074012521     -0.248866867
N       0.067383369     -0.020106612      1.439220896
H      -1.061332718     -0.128479547      0.078964980
H      -0.700670296     -0.715200855      2.064606213
H       0.597014275      0.590427287      2.568983899
H       0.963765323     -0.348604280     -0.474367001
           6
  t=        53.50000    4    1
C      -0.055105538      0.084799803     -0.235812252
N       0.061676989     -0.025161442      1.427873058
H      -1.005616315     -0.148927284      0.085722419
H      -0.657384077     -0.731872746      2.086903784
H       0.575636711      0.636145588      2.540082456
H       0.886560299     -0.415411841     -0.472288821
           6
  t=        54.00000    4    1
C      -0.048019262      0.095503399     -0.221674875
N       0.056024543     -0.030086229      1.417826498
H      -0.957708570     -0.171763727      0.084386215
H      -0.607917140     -0.741762338      2.101593883
H       0.550793962      0.675846752      2.499142059
H       0.808190616     -0.481406287     -0.473443245
           6
  t=        54.50000    4    1
C      -0.040474728      0.106166262     -0.206183054
N       0.050552849     -0.034770924      1.408898526
H      -0.921788096     -0.198359060      0.074803412
H      -0.553873982     -0.744493425      2.108594409
H       0.523181910      0.708684934      2.446411838
H       0.732033450     -0.546788294     -0.478540877
           6
  t=        55.00000    4    1
C      -0.032397885      0.116848460     -0.189435475
N       0.045392092     -0.039101373      1.401167431
H      -0.901409734     -0.229237400      0.057692120
H      -0.496427546     -0.740931231      2.107563475
H       0.492925108      0.734420947      2.381932811
H       0.660001476     -0.612230641     -0.487911667
           6
  t=        55.50000    4    1
C      -0.023782108      0.127468842     -0.171494162
N       0.040664892     -0.042943874      1.394614889
H      -0.897792291     -0.264155628      0.033375871
H      -0.436904577     -0.732303559      2.098775364
H       0.460118082      0.752870942      2.306043224
H       0.592763143     -0.677456242     -0.501498583
           6
  t=        56.00000    4    1
C      -0.014759380      0.137761640     -0.152408495
N       0.036482841     -0.046138665      1.389116343
H      -0.909317106     -0.301733983      0.001889581
H      -0.376818915     -0.720374149      2.083243538
H       0.424902819      0.763995764      2.219462700
H       0.530092617     -0.741097307     -0.518751015
           6
  t=        56.50000    4    1
C      -0.005592968      0.147327089     -0.132254467
N       0.032937875     -0.048504063      1.384421668
H      -0.932216661     -0.339608455     -0.036565186
H      -0.317819105     -0.707603666      2.062900462
H       0.387557914      0.768118479      2.123511181
H       0.471449621     -0.801144685     -0.538742795
           6
  t=        57.00000    4    1
C       0.003406173      0.155747405     -0.111154560
N       0.030082690     -0.049864815      1.380123567
H      -0.961948097     -0.375097597     -0.081208643
H      -0.261496588     -0.697193135      2.040729029
H       0.348601767      0.766344325      2.020461360
H       0.416334639     -0.855644561     -0.560391773
           6
  t=        57.50000    4    1
C       0.012032082      0.162748544     -0.089166534
N       0.027901324     -0.050104324      1.375504171
H      -0.994644654     -0.406556422     -0.130670506
H      -0.209029557     -0.692682107      2.021015776
H       0.308802215      0.761017413      1.914257806
H       0.363965418     -0.903403539     -0.582637288
           6
  t=        58.00000    4    1
C       0.020062890      0.167948970     -0.066663956
N       0.026307838     -0.049224577      1.370156934
H      -1.027510254     -0.432145450     -0.183159365
H      -0.161496538     -0.698228741      2.006707005
H       0.270061303      0.756657934      1.808784176
H       0.314558158     -0.942052660     -0.604004028
           6
  t=        58.50000    4    1
C       0.027352895      0.171103461     -0.043863468
N       0.025101229     -0.047531359      1.363636733
H      -1.058478762     -0.450708499     -0.237308698
H      -0.118261226     -0.715596570      1.999325107
H       0.234168955      0.760114812      1.709166781
H       0.268148146     -0.970664955     -0.623742988
           6
  t=        59.00000    4    1
C       0.033802976      0.172050439     -0.020985418
N       0.024050463     -0.045604484      1.355713802
H      -1.086380962     -0.461346208     -0.292009821
H      -0.077666302     -0.743800338      1.998289659
H       0.202425679      0.779206610      1.619908301
H       0.224998664     -0.988963608     -0.641069006
           6
  t=        59.50000    4    1
C       0.039319224      0.170699260      0.001724204
N       0.023020755     -0.043969059      1.346498435
H      -1.110583009     -0.462825677     -0.346724162
H      -0.037448106     -0.779614291      2.001317597
H       0.174447553      0.818461771      1.543049393
H       0.185586996     -0.997560403     -0.654881774
           6
  t=        60.00000    4    1
C       0.043825668      0.167290689      0.024035923
N       0.022007551     -0.042832595      1.336323627
H      -1.129674246     -0.454233659     -0.401828286
H       0.004761401     -0.818923998      2.005690090
H       0.148063547      0.875734049      1.478096483
H       0.149273340     -0.999320304     -0.663486730
           6
  t=        60.50000    5    2
C       0.047377225      0.162395857      0.045718322
N       0.021045933     -0.042072530      1.325633012
H      -1.141484219     -0.437636141     -0.457275900
H       0.049334755     -0.857720804      2.009045550
H       0.121887140      0.943671773      1.423621005
H       0.113759889     -0.997337575     -0.666548595
           6
  t=        61.00000    5    2
C       0.050183257      0.156617710      0.065297769
N       0.020185811     -0.041411750      1.315561292
H      -1.146381413     -0.419701405     -0.508540359
H       0.091464942     -0.890597772      2.009489435
H       0.097864900      1.010925786      1.381170059
H       0.079089276     -0.990031206     -0.666466213
           6
  t=        61.50000    5    2
C       0.052735673      0.149457569      0.083561402
N       0.019364130     -0.040451007      1.306022828
H      -1.147936079     -0.402157233     -0.557650341
H       0.132152688     -0.917229932      2.005840110
H       0.074808845      1.075778186      1.347746985
H       0.044038028     -0.973890072     -0.665215053
           6
  t=        62.00000    5    2
C       0.055064782      0.140946343      0.100165860
N       0.018580638     -0.039068702      1.297384824
H      -1.147001308     -0.384424351     -0.604569895
H       0.171462502     -0.936154863      1.997440675
H       0.052304475      1.134599381      1.322860200
H       0.009451872     -0.949383877     -0.662696308
           6
  t=        62.50000    5    2
C       0.057238163      0.131248273      0.114785118
N       0.017827603     -0.037266163      1.290000729
H      -1.144320000     -0.366411842     -0.649419203
H       0.209244192     -0.946480091      1.984062915
H       0.030183964      1.185288403      1.305756137
H      -0.024305532     -0.917332166     -0.658836997
           6
  t=        63.00000    5    2
C       0.059309419      0.120530928      0.127069811
N       0.017100658     -0.035063272      1.284221630
H      -1.140646394     -0.347992921     -0.692374151
H       0.245255547     -0.947775764      1.965747637
H       0.008415847      1.226529437      1.295829724
H      -0.056783795     -0.878694730     -0.653615293
           6
  t=        63.50000    4    1
C       0.061276576      0.108901479      0.136634447
N       0.016401396     -0.032455786      1.280378494
H      -1.136734427     -0.328525727     -0.733509192
H       0.279293315     -0.939980320      1.942747196
H      -0.012999506      1.257444686      1.292761488
H      -0.087024742     -0.834632225     -0.646898216
           6
  t=        64.00000    4    1
C       0.062845690      0.096929626      0.143194896
N       0.015818824     -0.029544867      1.278873232
H      -1.127108131     -0.307812407     -0.773270059
H       0.311584538     -0.923594817      1.914915746
H      -0.033949692      1.277665016      1.295817874
H      -0.118580542     -0.789850052     -0.639561818
           6
  t=        64.50000    4    1
C       0.064416886      0.084480651      0.146648678
N       0.015262588     -0.026194810      1.279714757
H      -1.118530864     -0.286441886     -0.811775079
H       0.341224612     -0.899049436      1.883786880
H      -0.054158106      1.286609384      1.305237859
H      -0.147568654     -0.743029523     -0.632163975
           6
  t=        65.00000    4    1
C       0.065922573      0.071638626      0.146893071
N       0.014723575     -0.022286714      1.282932088
H      -1.111627321     -0.263375487     -0.848931938
H       0.368325831     -0.867437277      1.850496037
H      -0.073462591      1.283938312      1.321140150
H      -0.172707405     -0.696429805     -0.625231279
           6
  t=        65.50000    4    1
C       0.067246563      0.058464837      0.143963525
N       0.014180396     -0.017640156      1.288398867
H      -1.106932756     -0.237204637     -0.884516393
H       0.393367843     -0.830423231      1.816586368
H      -0.091700662      1.269369754      1.343718110
H      -0.192423066     -0.652749145     -0.619390874
           6
  t=        66.00000    4    1
C       0.068220145      0.044991603      0.138036027
N       0.013591693     -0.012012819      1.295831887
H      -1.104831624     -0.206130623     -0.918155779
H       0.417376433     -0.790324466      1.784032251
H      -0.108764780      1.242702005      1.373167663
H      -0.204881046     -0.615019019     -0.615346237
           6
  t=        66.50000    4    1
C       0.068646223      0.031227423      0.129439134
N       0.012886753     -0.005119420      1.304811285
H      -1.105458432     -0.168165159     -0.949315703
H       0.442045770     -0.750030683      1.755129088
H      -0.124667420      1.203903969      1.409570585
H      -0.208299253     -0.586371942     -0.614087264
           6
  t=        67.00000    4    1
C       0.068357842      0.017198697      0.118685383
N       0.011969930      0.003309888      1.314823108
H      -1.108564815     -0.121674674     -0.977319521
H       0.469568065     -0.712622169      1.732157638
H      -0.139562475      1.153289324      1.452774329
H      -0.201647500     -0.569738558     -0.617380474
           6
  t=        67.50000    1    1
C       0.067241674      0.003012320      0.106441475
N       0.010765052      0.013406441      1.325322346
H      -1.113380900     -0.065831007     -1.001396180
H       0.502002785     -0.680577769      1.716882523
H      -0.153739912      1.091900735      1.502349489
H      -0.185057416     -0.567608470     -0.627697860
           6
  t=        68.00000    1    1
C       0.065767473     -0.011002293      0.093338931
N       0.009099047      0.025126936      1.336147992
H      -1.119569186     -0.003641426     -1.022663212
H       0.540569428     -0.654832616      1.710118034
H      -0.166743375      1.020860616      1.558324278
H      -0.163730945     -0.580482289     -0.650046736
           6
  t=        68.50000    1    1
C       0.063231547     -0.024841790      0.079729386
N       0.007212843      0.037823936      1.346586638
H      -1.124357268      0.067143954     -1.037693361
H       0.585239758     -0.634708325      1.711607594
H      -0.180149150      0.946691700      1.619813116
H      -0.133804745     -0.608855245     -0.680986694
           6
  t=        69.00000    1    1
C       0.059462840     -0.038434375      0.065817778
N       0.005374271      0.050677911      1.356286385
H      -1.126162997      0.145462819     -1.045425522
H       0.634294526     -0.617973706      1.719890924
H      -0.195465686      0.876869088      1.687629720
H      -0.095317884     -0.650839324     -0.718483040
           6
  t=        69.50000    1    1
C       0.054291815     -0.051753612      0.051659148
N       0.003970737      0.062726917      1.364864228
H      -1.123487526      0.229919205     -1.044878532
H       0.685108212     -0.601957372      1.733062898
H      -0.214985844      0.820105534      1.763951754
H      -0.048214928     -0.703371865     -0.759123245
           6
  t=        70.00000    1    1
C       0.047582594     -0.064793220      0.037204974
N       0.003385239      0.073267754      1.371980797
H      -1.115019192      0.318840739     -1.035149722
H       0.734898986     -0.584460083      1.749253128
H      -0.240836906      0.781941205      1.851108025
H       0.007397948     -0.762824214     -0.798975311
           6
  t=        70.50000    1    1
C       0.039242824     -0.077531612      0.022359668
N       0.003851870      0.082158426      1.377541474
H      -1.099048701      0.410620586     -1.015681323
H       0.781789466     -0.563712203      1.766789030
H      -0.273849677      0.760645375      1.948677477
H       0.070366679     -0.825912531     -0.834050575
           6
  t=        71.00000    1    1
C       0.029295116     -0.089923361      0.007225392
N       0.005370258      0.089710783      1.381714772
H      -1.074840772      0.503032416     -0.986226754
H       0.823937287     -0.538941786      1.784306877
H      -0.312016442      0.749588121      2.051910023
H       0.139526589     -0.889426329     -0.862039592
           6
  t=        71.50000    1    1
C       0.017833608     -0.101911961     -0.008134723
N       0.007851811      0.096298883      1.384885933
H      -1.042080648      0.593853765     -0.946898444
H       0.859782448     -0.509847625      1.800682403
H      -0.352529204      0.742099880      2.154280090
H       0.213424972     -0.950644903     -0.881284475
           6
  t=        72.00000    1    1
C       0.004991999     -0.113428657     -0.023634992
N       0.011190001      0.102178325      1.387399615
H      -1.000606080      0.680943850     -0.898038616
H       0.888302148     -0.476460230      1.815021937
H      -0.392996867      0.733839934      2.250249697
H       0.290419469     -1.007426292     -0.890820408
           6
  t=        72.50000    1    1
C      -0.009057935     -0.124393739     -0.039159665
N       0.015292706      0.107485474      1.389486709
H      -0.950500566      0.762236577     -0.840259528
H       0.908901957     -0.439083517      1.826664991
H      -0.431786018      0.722654376      2.336132294
H       0.368789304     -1.058090349     -0.890274359
           6
  t=        73.00000    1    1
C      -0.024111810     -0.134721633     -0.054569648
N       0.020078965      0.112290318      1.391281892
H      -0.892132579      0.835797391     -0.774456108
H       0.921366882     -0.398244200      1.835171550
H      -0.467904238      0.707722832      2.409810994
H       0.446816818     -1.101346808     -0.879721930
           6
  t=        73.50000    1    1
C      -0.039939445     -0.144328931     -0.069711933
N       0.025463532      0.116642050      1.392862461
H      -0.826162675      0.899900533     -0.701793183
H       0.925881736     -0.354676511      1.840313360
H      -0.500781028      0.688878061      2.470188176
H       0.522850983     -1.136245056     -0.859568270
           6
  t=        74.00000    1    1
C      -0.056292090     -0.153146048     -0.084428242
N       0.031337097      0.120600332      1.394280300
H      -0.753522424      0.953114590     -0.623676803
H       0.923133930     -0.309343812      1.842084726
H      -0.530078076      0.666198006      2.516717739
H       0.595354623     -1.162125758     -0.830460979
           6
  t=        74.50000    1    1
C      -0.072909665     -0.161129730     -0.098556103
N       0.037536923      0.124256438      1.395571199
H      -0.675353375      0.994380156     -0.541724742
H       0.914522134     -0.263478466      1.840815043
H      -0.555495456      0.639762782      2.549091839
H       0.662935062     -1.178560476     -0.793235659
           6
  t=        75.00000    1    1
C      -0.089543997     -0.168255431     -0.111904420
N       0.043826634      0.127712830      1.396694014
H      -0.592864576      1.023024156     -0.457822676
H       0.902305249     -0.218428437      1.837686845
H      -0.576538558      0.609584427      2.567306037
H       0.724377202     -1.185256118     -0.748888417
           6
  t=        75.50000    1    1
C      -0.106022950     -0.174495948     -0.124271654
N       0.049970724      0.130987849      1.397506764
H      -0.507075517      1.038841432     -0.374185307
H       0.889163767     -0.175042705      1.834871557
H      -0.592766540      0.575927999      2.572033210
H       0.778801799     -1.182002339     -0.698475794
           6
  t=        76.00000    1    1
C      -0.122107110     -0.179974745     -0.135604159
N       0.055732800      0.134171312      1.398017613
H      -0.419529464      1.042698156     -0.292376219
H       0.878017201     -0.134642124      1.833706037
H      -0.604225976      0.539275408      2.563560594
H       0.825313033     -1.168604256     -0.642810480
           6
  t=        76.50000    1    1
C      -0.137599634     -0.184792515     -0.145817946
N       0.060909693      0.137269080      1.398145236
H      -0.331688301      1.035839801     -0.214280305
H       0.871616636     -0.098055959      1.836257160
H      -0.610980736      0.500266219      2.542757842
H       0.863164729     -1.145000130     -0.582814215
           6
  t=        77.00000    1    1
C      -0.152338019     -0.189054530     -0.154936276
N       0.065312818      0.140305079      1.398107352
H      -0.244795170      1.019844161     -0.141424360
H       0.872541075     -0.065908609      1.842611612
H      -0.613324603      0.459392667      2.509270146
H       0.892000139     -1.111714601     -0.519440186
           6
  t=        77.50000    1    1
C      -0.166145311     -0.192892143     -0.162970527
N       0.068789280      0.143283435      1.398116700
H      -0.159982210      0.996652223     -0.074968102
H       0.882324416     -0.038382056      1.852458950
H      -0.611278278      0.417070248      2.462760059
H       0.911455650     -1.069415465     -0.453701156
           6
  t=        78.00000    1    1
C      -0.178860626     -0.196430024     -0.169916258
N       0.071318799      0.146144430      1.398353104
H      -0.078207229      0.968397710     -0.015800273
H       0.900694842     -0.015055580      1.864990262
H      -0.604924097      0.373863213      2.403427326
H       0.921209382     -1.018907266     -0.386650644
           6
  t=        78.50000    1    1
C      -0.190353068     -0.199778105     -0.175761945
N       0.073014014      0.148789282      1.398958251
H      -0.000218493      0.937260578      0.035612035
H       0.925808624      0.004820886      1.878817762
H      -0.594633062      0.330537706      2.332125829
H       0.921100720     -0.961204721     -0.319393505
           6
  t=        79.00000    1    1
C      -0.200536633     -0.203028014     -0.180488918
N       0.074097944      0.151102952      1.399970681
H       0.073468428      0.905335854      0.079392582
H       0.954929101      0.022056340      1.892313513
H      -0.581418116      0.288133357      2.250762397
H       0.911272085     -0.897562075     -0.253090206
           6
  t=        79.50000    1    1
C      -0.209389969     -0.206252051     -0.184071221
N       0.074903837      0.152970904      1.401234823
H       0.142578598      0.874518803      0.116419110
H       0.985111161      0.037337862      1.904008955
H      -0.567582215      0.248018889      2.162983820
H       0.892362009     -0.829478146     -0.188944187
           6
  t=        80.00000    1    1
C      -0.216982463     -0.209498710     -0.186478370
N       0.075923858      0.154295614      1.402313185
H       0.207044547      0.846369630      0.148443276
H       1.013612180      0.051157028      1.912858612
H      -0.557728366      0.211818378      2.074984941
H       0.865771435     -0.758696364     -0.128140792
           6
  t=        80.50000    1    1
C      -0.223255269     -0.212827723     -0.187824839
N       0.077787129      0.154956843      1.402855024
H       0.266757472      0.823035696      0.175422011
H       1.038712716      0.064221613      1.918097950
H      -0.559553753      0.180851600      1.995397708
H       0.831583900     -0.687009738     -0.072267985
           6
  t=        81.00000    1    1
C      -0.228485656     -0.216280960     -0.188167778
N       0.081293947      0.154982950      1.402171476
H       0.322259774      0.805655666      0.200423736
H       1.058590318      0.076876121      1.919534087
H      -0.582552476      0.155858111      1.932720863
H       0.792755346     -0.616536503     -0.022448254
           6
  t=        81.50000    1    1
C      -0.233118122     -0.219887271     -0.187600863
N       0.086896168      0.154511021      1.399935121
H       0.374702734      0.794567571      0.227015137
H       1.071995861      0.089423991      1.917254412
H      -0.632085991      0.136549255      1.889955318
H       0.753759370     -0.549190709      0.020328067
           6
  t=        82.00000    1    1
C      -0.237651370     -0.223609205     -0.186226138
N       0.094287972      0.153716272      1.396386465
H       0.425176479      0.789238281      0.257955142
H       1.078288026      0.102055202      1.911538514
H      -0.703986204      0.122171091      1.862764769
H       0.720166222     -0.486755660      0.055232138
           6
  t=        82.50000    1    1
C      -0.242503002     -0.227354602     -0.184143044
N       0.102641673      0.152743884      1.392017193
H       0.473984842      0.788819798      0.294683560
H       1.077395623      0.114718151      1.902850406
H      -0.787602569      0.112218067      1.844209489
H       0.697565173     -0.430940761      0.081652247
           6
  t=        83.00000    1    1
C      -0.247931995     -0.231048143     -0.181440066
N       0.111115238      0.151708512      1.387216495
H       0.520695739      0.792645211      0.337862045
H       1.069768394      0.127123707      1.891858484
H      -0.872441206      0.106451740      1.829134099
H       0.690227806     -0.383041363      0.099059719
           6
  t=        83.50000    1    1
C      -0.253982232     -0.234670684     -0.178165393
N       0.119084415      0.150710131      1.382180769
H       0.564460150      0.800336488      0.387881480
H       1.056354903      0.138812147      1.879464245
H      -0.951169112      0.104703207      1.814872337
H       0.699917644     -0.343667859      0.106673424
           6
  t=        84.00000    1    1
C      -0.260474983     -0.238250609     -0.174308561
N       0.126136234      0.149839817      1.376948317
H       0.604227980      0.811703185      0.445104088
H       1.038599885      0.149195024      1.866846222
H      -1.019446920      0.106816495      1.800396655
H       0.725510528     -0.312812864      0.103323368
           6
  t=        84.50000    1    1
C      -0.267084456     -0.241850010     -0.169822750
N       0.132005365      0.149188652      1.371430411
H       0.638853208      0.826604723      0.510138725
H       1.018408884      0.157529686      1.855506396
H      -1.074901701      0.112693519      1.785509282
H       0.763681434     -0.290021276      0.087771851
           6
  t=        85.00000    1    1
C      -0.273431595     -0.245548820     -0.164665840
N       0.136507693      0.148838502      1.365473108
H       0.667267475      0.845015206      0.583602080
H       0.998047563      0.162941380      1.847224221
H      -1.116268245      0.122336401      1.770369222
H       0.810012652     -0.274580278      0.059101108
           6
  t=        85.50000    1    1
C      -0.279093154     -0.249372163     -0.158812422
N       0.139466122      0.148830279      1.359003681
H       0.688634095      0.866824725      0.664670741
H       0.979896537      0.164569196      1.843840231
H      -1.142910465      0.135683452      1.755249780
H       0.859745299     -0.265726670      0.016728698
           6
  t=        86.00000    1    1
C      -0.283695443     -0.253316660     -0.152273964
N       0.140747826      0.149182712      1.351991907
H       0.702442693      0.891827618      0.751698477
H       0.965929954      0.161522224      1.846992411
H      -1.154540140      0.152580684      1.740400703
H       0.908523447     -0.262510341     -0.039030439
           6
  t=        86.50000    1    1
C      -0.286961699     -0.257374577     -0.145103123
N       0.140297610      0.149898599      1.344446417
H       0.708617535      0.919985064      0.842708623
H       0.957141275      0.152869836      1.857714371
H      -1.151029676      0.172799882      1.726004841
H       0.952773285     -0.263864617     -0.106909003
           6
  t=        87.00000    1    1
C      -0.288707905     -0.261534703     -0.137386604
N       0.138155584      0.150969100      1.336434259
H       0.707467377      0.951481884      0.935661834
H       0.953196169      0.137721106      1.876073395
H      -1.132342565      0.196012078      1.712180594
H       0.989735531     -0.268765057     -0.184952556
           6
  t=        87.50000    1    1
C      -0.288827370     -0.265782009     -0.129236870
N       0.134455751      0.152387125      1.328079820
H       0.699502719      0.986524093      1.028787112
H       0.952532540      0.115374325      1.901054379
H      -1.098551287      0.221761346      1.699012398
H       1.017402004     -0.276340498     -0.270848637
           6
  t=        88.00000    1    1
C      -0.287275519     -0.270098951     -0.120788147
N       0.129411568      0.154167893      1.319547670
H       0.685206780      1.024948537      1.120798841
H       0.952846093      0.085499102      1.930744641
H      -1.049962102      0.249441709      1.686592239
H       1.034403487     -0.285911763     -0.362179320
           6
  t=        88.50000    1    1
C      -0.284059688     -0.274468266     -0.112194634
N       0.123302581      0.156365209      1.311022319
H       0.664909705      1.065873623      1.210840045
H       0.951677900      0.048264696      1.962716895
H      -0.987393400      0.278294732      1.675080084
H       1.039890362     -0.296961194     -0.456547927
           6
  t=        89.00000    1    1
C      -0.279232601     -0.278876244     -0.103626052
N       0.116475180      0.159069307      1.302689384
H       0.638860280      1.107645036      1.298213581
H       0.946850841      0.004350322      1.994436278
H      -0.912678368      0.307461681      1.664827929
H       1.033439070     -0.309071980     -0.551632623
           6
  t=        89.50000    1    1
C      -0.272887089     -0.283314902     -0.095258663
N       0.109370416      0.162378511      1.294708354
H       0.607440865      1.148138649      1.382125233
H       0.936685689     -0.045151942      2.023562801
H      -0.829483222      0.336150259      1.656645050
H       1.014989904     -0.321880961     -0.645225796
           6
  t=        90.00000    1    1
C      -0.265151054     -0.287782428     -0.087263690
N       0.102584406      0.166347789      1.287164254
H       0.571375126      1.185238018      1.461598439
H       0.920051311     -0.098887991      2.048116038
H      -0.744421612      0.364004416      1.652295767
H       0.984804219     -0.335055060     -0.735277389
           6
  t=        90.50000    1    1
C      -0.256182004     -0.292282342     -0.079796183
N       0.096918527      0.170926378      1.280005036
H       0.531814970      1.217242238      1.535547433
H       0.896333262     -0.155394489      2.066525155
H      -0.667835743      0.391692079      1.655148560
H       0.943427572     -0.348277406     -0.819929961
           6
  t=        91.00000    1    1
C      -0.246160598     -0.296822928     -0.072988371
N       0.093272377      0.175929255      1.273031584
H       0.490281245      1.243071305      1.602912160
H       0.865382125     -0.213226400      2.077607367
H      -0.612240480      0.421204477      1.670146344
H       0.891655143     -0.361234853     -0.897542591
           6
  t=        91.50000    4    1
C      -0.235283191     -0.301418509     -0.066950945
N       0.092231344      0.181139513      1.266072421
H       0.448502992      1.262265277      1.662770225
H       0.827459693     -0.271050940      2.080517820
H      -0.586434845      0.454533832      1.701353628
H       0.830499504     -0.373608149     -0.966711971
           6
  t=        92.00000    4    1
C      -0.224184071     -0.306009225     -0.061404593
N       0.092436289      0.186384844      1.259265683
H       0.407871486      1.277957469      1.717928706
H       0.786706295     -0.327734713      2.079034514
H      -0.575386801      0.489101283      1.739923792
H       0.765833710     -0.385403764     -1.030421595
           6
  t=        92.50000    4    1
C      -0.212633062     -0.310712322     -0.056809491
N       0.094678390      0.191882745      1.252987510
H       0.370373626      1.287266501      1.764247334
H       0.740227001     -0.382179922      2.068411937
H      -0.588502934      0.524362791      1.789940639
H       0.694238829     -0.395920036     -1.083616486
           6
  t=        93.00000    4    1
C      -0.200824291     -0.315574364     -0.053229957
N       0.098286687      0.197844843      1.247778790
H       0.337376475      1.290509138      1.801276392
H       0.688769853     -0.433487995      2.048512496
H      -0.617614188      0.556312486      1.844610845
H       0.617064661     -0.404752416     -1.125665451
           6
  t=        93.50000    4    1
C      -0.188937413     -0.320653168     -0.050693512
N       0.102684996      0.204457174      1.244096824
H       0.309921235      1.287903504      1.828667098
H       0.633077377     -0.480904898      2.019508896
H      -0.655736546      0.581608478      1.897770235
H       0.535688314     -0.411427622     -1.156254467
           6
  t=        94.00000    4    1
C      -0.177124146     -0.326013267     -0.049172587
N       0.107465919      0.211822418      1.242197859
H       0.288736724      1.279530123      1.846171442
H       0.573862876     -0.523835345      1.981952583
H      -0.698165618      0.598358176      1.945274918
H       0.451430279     -0.415387129     -1.175431710
           6
  t=        94.50000    4    1
C      -0.165495352     -0.331717067     -0.048573333
N       0.112342114      0.219969521      1.242139286
H       0.274279610      1.265382057      1.853671889
H       0.511838813     -0.561885804      1.936841207
H      -0.741940678      0.605883821      1.984796348
H       0.365473143     -0.415998940     -1.183663620
           6
  t=        95.00000    4    1
C      -0.154118858     -0.337811943     -0.048737173
N       0.117087753      0.228874672      1.243824409
H       0.266782502      1.245468953      1.851229525
H       0.447777505     -0.594909911      1.885641284
H      -0.785139640      0.604276762      2.015206396
H       0.278835227     -0.412615463     -1.181894295
           6
  t=        95.50000    5    2
C      -0.143034381     -0.344316007     -0.049453763
N       0.121503185      0.238470830      1.247054498
H       0.266316874      1.219980705      1.839164110
H       0.382587145     -0.623025489      1.830222327
H      -0.826408986      0.594050664      2.036046050
H       0.192430283     -0.404675285     -1.171597280
           6
  t=        96.00000    5    2
C      -0.132620875     -0.350536724     -0.050406218
N       0.125173081      0.247882436      1.251299299
H       0.271594554      1.190981615      1.819200992
H       0.320928529     -0.644847922      1.775777755
H      -0.862711050      0.577555206      2.046812394
H       0.110130864     -0.394057596     -1.155593989
           6
  t=        96.50000    5    2
C      -0.122205009     -0.356409944     -0.051403097
N       0.128096360      0.257182430      1.256426172
H       0.282008112      1.158445238      1.791926026
H       0.261195408     -0.661812569      1.721907697
H      -0.895293063      0.555726017      2.048692611
H       0.027395665     -0.382013477     -1.135694127
           6
  t=        97.00000    5    2
C      -0.111797141     -0.361893299     -0.052186663
N       0.130073538      0.266168761      1.262148571
H       0.298208375      1.124700676      1.759229658
H       0.204496177     -0.674760840      1.670554651
H      -0.923559762      0.529335196      2.041747919
H      -0.055234723     -0.368499815     -1.114879268
           6
  t=        97.50000    5    2
C      -0.101362447     -0.366945349     -0.052489041
N       0.130877265      0.274531392      1.268138006
H       0.321250179      1.093494828      1.723850754
H       0.151848973     -0.684535495      1.623419639
H      -0.946889998      0.499217791      2.026044779
H      -0.137710235     -0.353441488     -1.096281198
           6
  t=        98.00000    4    1
C      -0.090828258     -0.371530609     -0.052114209
N       0.130250026      0.281860232      1.274049014
H       0.352688399      1.069911303      1.689187272
H       0.104129891     -0.691907735      1.581854791
H      -0.964571301      0.466265222      2.001685656
H      -0.220461541     -0.336766852     -1.082286440
           6
  t=        98.50000    4    1
C      -0.079620205     -0.376315612     -0.050960772
N       0.127920447      0.288360099      1.280034965
H       0.396573709      1.058181902      1.656344710
H       0.059061381     -0.697900669      1.543966496
H      -0.976474980      0.428738485      1.966436142
H      -0.308458792     -0.314855161     -1.073210790
           6
  t=        99.00000    4    1
C      -0.068542529     -0.381452758     -0.049264763
N       0.123847048      0.293464370      1.285643259
H       0.451314525      1.062736999      1.629571699
H       0.020762245     -0.702171974      1.512793743
H      -0.980703787      0.390004628      1.922000410
H      -0.395974165     -0.286158651     -1.068947005
           6
  t=        99.50000    5    2
C      -0.057518907     -0.386940701     -0.047367743
N       0.117918107      0.297214007      1.290898226
H       0.516520889      1.081821124      1.608453698
H      -0.009775721     -0.705028116      1.488937285
H      -0.976868903      0.351767941      1.869076424
H      -0.483354793     -0.250904884     -1.066650437
           6
  t=       100.00000    5    2
C      -0.047213192     -0.391926483     -0.045640257
N       0.110612710      0.299643055      1.295496912
H       0.585743275      1.107788798      1.591873177
H      -0.030789654     -0.707506353      1.473972979
H      -0.965265945      0.317965265      1.812745808
H      -0.564370608     -0.214976970     -1.063239663
