           6
  t=         0.00000    9    3
C       0.004885406     -0.018546164      0.016375939
N       0.006650683     -0.001305634      1.344118572
H       0.877119540     -0.015969102     -0.654809580
H       0.818444350      0.145094628      1.878209648
H      -0.890143930     -0.080523870      1.726458685
H      -0.955996526      0.190409327     -0.548483400
           6
  t=         0.50000    9    3
C       0.003530431     -0.018109470      0.013166148
N       0.006083114     -0.000476466      1.347901191
H       0.903332208     -0.008895629     -0.657181612
H       0.815981647      0.126868980      1.865301094
H      -0.881434972     -0.072787086      1.732450814
H      -0.964436167      0.177104423     -0.553533669
           6
  t=         1.00000    9    3
C       0.002015481     -0.017702535      0.007615271
N       0.005528829      0.000279858      1.352905997
H       0.928319669     -0.000997255     -0.657220602
H       0.816947255      0.109182546      1.855641578
H      -0.876099725     -0.064298910      1.742515043
H      -0.969984992      0.163050445     -0.557344709
           6
  t=         1.50000    9    3
C       0.000421849     -0.017325413     -0.000216642
N       0.004954786      0.000954657      1.358957927
H       0.950816543      0.007758546     -0.654245820
H       0.822430217      0.092064711      1.849979305
H      -0.874695754     -0.054963587      1.756806599
H      -0.972417922      0.148211011     -0.559783275
           6
  t=         2.00000    9    3
C      -0.001176358     -0.016981603     -0.010149665
N       0.004337596      0.001543863      1.365890953
H       0.969917591      0.017483265     -0.647970993
H       0.832789195      0.075314618      1.848560458
H      -0.877136287     -0.044537269      1.775128271
H      -0.971832573      0.132529823     -0.561020135
           6
  t=         2.50000    9    3
C      -0.002717236     -0.016678640     -0.021867946
N       0.003680261      0.002047149      1.373543760
H       0.985128901      0.028417421     -0.638527367
H       0.847508971      0.058496457      1.851098574
H      -0.882742191     -0.032612875      1.796924813
H      -0.968677728      0.115889350     -0.561601768
           6
  t=         3.00000    8    2
C      -0.004178458     -0.016433111     -0.034778069
N       0.003036688      0.002467350      1.381672404
H       0.996652115      0.041099747     -0.626746696
H       0.865281463      0.040853782      1.856908177
H      -0.890501749     -0.018535465      1.821316580
H      -0.963873527      0.098010485     -0.562807538
           6
  t=         3.50000    8    2
C      -0.005699161     -0.016260269     -0.048994732
N       0.002345442      0.002890008      1.390531681
H       1.007199361      0.055605338     -0.614036652
H       0.886543815      0.021731890      1.865856454
H      -0.899965163     -0.002723903      1.850260266
H      -0.958508747      0.078884748     -0.567228212
           6
  t=         4.00000    5    2
C      -0.006782959     -0.016123918     -0.064486916
N       0.001540070      0.003244466      1.400128564
H       1.012380069      0.069522902     -0.598481393
H       0.907286802      0.003763439      1.875708514
H      -0.907729577      0.012974124      1.880050909
H      -0.952573522      0.060689223     -0.571305975
           6
  t=         4.50000    5    2
C      -0.007643197     -0.016003432     -0.080715107
N       0.000701104      0.003563924      1.410242330
H       1.015057046      0.083708904     -0.581487909
H       0.927111988     -0.014271770      1.885653466
H      -0.914137072      0.029274828      1.910173501
H      -0.946768811      0.042364557     -0.575665073
           6
  t=         5.00000    5    2
C      -0.007976565     -0.015918488     -0.097566767
N      -0.000126129      0.003792561      1.421026867
H       1.013017088      0.098298904     -0.562836926
H       0.942740031     -0.032101018      1.894591039
H      -0.916499755      0.046551145      1.939006788
H      -0.942531195      0.024139410     -0.581281345
           6
  t=         5.50000    5    2
C      -0.007777000     -0.015868648     -0.114696299
N      -0.000899644      0.003919737      1.432400611
H       1.007087266      0.113535201     -0.543405468
H       0.952976888     -0.049782748      1.901903273
H      -0.914145955      0.064905210      1.965770238
H      -0.940820934      0.005870397     -0.588861005
           6
  t=         6.00000    5    2
C      -0.007096414     -0.015856812     -0.131777697
N      -0.001586078      0.003933078      1.444259451
H       0.998473318      0.129683526     -0.524180176
H       0.957130319     -0.067295980      1.907217125
H      -0.906810436      0.084377978      1.989900736
H      -0.942262215     -0.012563658     -0.598916392
           6
  t=         6.50000    5    2
C      -0.006054223     -0.015893753     -0.148513873
N      -0.002159355      0.003817820      1.456478707
H       0.988718977      0.147080251     -0.506200922
H       0.954993651     -0.084585499      1.910379744
H      -0.894619458      0.105004831      2.011048606
H      -0.947006271     -0.031256341     -0.611710112
           6
  t=         7.00000    5    2
C      -0.004830624     -0.016002609     -0.164645897
N      -0.002600923      0.003555925      1.468914612
H       0.979573266      0.166153706     -0.490474857
H       0.946845994     -0.101591146      1.911441509
H      -0.878080826      0.126858654      2.029078844
H      -0.954685626     -0.050242890     -0.627235900
           6
  t=         7.50000    5    2
C      -0.003640189     -0.016221233     -0.179961462
N      -0.002902438      0.003125431      1.481405670
H       0.972744418      0.187412455     -0.477867752
H       0.933476915     -0.118273418      1.910650104
H      -0.858072455      0.150087307      2.044077594
H      -0.964481239     -0.069463387     -0.645245819
           6
  t=         8.00000    8    2
C      -0.002689859     -0.016600224     -0.194302713
N      -0.003071227      0.002500590      1.493776048
H       0.969568601      0.211390770     -0.468994430
H       0.916224781     -0.134643084      1.908445751
H      -0.835814111      0.174946245      2.056350749
H      -0.975282038     -0.088736547     -0.665307626
           6
  t=         8.50000    8    2
C      -0.002095185     -0.017157273     -0.208113552
N      -0.003181854      0.001782841      1.506159739
H       0.971219615      0.237497661     -0.461974533
H       0.898925481     -0.150994279      1.904069187
H      -0.814435729      0.200734176      2.065559983
H      -0.986555937     -0.107674734     -0.684780386
           6
  t=         9.00000    8    2
C      -0.001967284     -0.017990130     -0.220814634
N      -0.003241376      0.000814134      1.518068857
H       0.976953488      0.267101314     -0.458961053
H       0.881888611     -0.167287439      1.899623415
H      -0.793864880      0.229022520      2.073171109
H      -0.996519886     -0.125897233     -0.705199203
           6
  t=         9.50000    8    2
C      -0.002284976     -0.019145243     -0.232438467
N      -0.003328127     -0.000427217      1.529367315
H       0.985693899      0.300247139     -0.459620946
H       0.867616093     -0.183793799      1.895834758
H      -0.775602333      0.260354541      2.079809391
H      -1.004262469     -0.142867132     -0.725970821
           6
  t=        10.00000    8    2
C      -0.002949589     -0.020646758     -0.243074889
N      -0.003537767     -0.001950238      1.539974732
H       0.995739179      0.336668644     -0.463413496
H       0.858456002     -0.200864742      1.893290492
H      -0.760801245      0.295220109      2.085945073
H      -1.009122726     -0.158043515     -0.746506938
           6
  t=        10.50000    8    2
C      -0.003815378     -0.022492385     -0.252849014
N      -0.003962108     -0.003749635      1.549881148
H       1.005112798      0.375814792     -0.469713275
H       0.856065994     -0.218826473      1.892286416
H      -0.750008027      0.333917938      2.091745464
H      -1.010695028     -0.170948649     -0.766267999
           6
  t=        11.00000    8    2
C      -0.004719729     -0.024655574     -0.261896878
N      -0.004664459     -0.005809132      1.559149340
H       1.011882217      0.416934645     -0.477912878
H       0.860958583     -0.237827709      1.892726856
H      -0.743029719      0.376431612      2.096997513
H      -1.008808872     -0.181208752     -0.784805162
           6
  t=        11.50000    8    2
C      -0.005504634     -0.027091847     -0.270346490
N      -0.005664777     -0.008106623      1.567901290
H       1.014372159      0.459179961     -0.487483418
H       0.872368273     -0.257721929      1.894140728
H      -0.738990766      0.422367102      2.101142660
H      -1.003503172     -0.188564820     -0.801788356
           6
  t=        12.00000    8    2
C      -0.006027894     -0.029745643     -0.278306256
N      -0.006942234     -0.010617722      1.576291694
H       1.011267447      0.501693600     -0.497997868
H       0.888510786     -0.278053144      1.895818487
H      -0.736546791      0.470976042      2.103408930
H      -0.995005361     -0.192867706     -0.817021725
           6
  t=        12.50000    8    2
C      -0.006167066     -0.032555817     -0.285859402
N      -0.008450654     -0.013317022      1.584478060
H       1.001638994      0.543671892     -0.509130584
H       0.907074515     -0.298141967      1.896999661
H      -0.734156259      0.521252627      2.102978533
H      -0.983715761     -0.194068399     -0.830450143
           6
  t=        13.00000    5    2
C      -0.005819171     -0.035455630     -0.293072078
N      -0.010137229     -0.016175574      1.592602432
H       0.984940401      0.584379111     -0.520610979
H       0.925724519     -0.317231549      1.897010988
H      -0.730326425      0.572048113      2.099122974
H      -0.970205678     -0.192236116     -0.842128432
           6
  t=        13.50000    5    2
C      -0.004863009     -0.038247535     -0.300375547
N      -0.012005035     -0.019076229      1.600996418
H       0.961284870      0.622553864     -0.531040167
H       0.943137842     -0.335379533      1.894775050
H      -0.724072295      0.621948065      2.091112508
H      -0.955650711     -0.188617301     -0.851120807
           6
  t=        14.00000    5    2
C      -0.003274983     -0.041015241     -0.307373396
N      -0.013959345     -0.022089709      1.609502141
H       0.930440117      0.658442745     -0.541593629
H       0.956899633     -0.351060682      1.890626708
H      -0.714014835      0.670197889      2.078797776
H      -0.940379908     -0.182249817     -0.858963715
           6
  t=        14.50000    5    2
C      -0.001014789     -0.043707501     -0.314059629
N      -0.015972972     -0.025194930      1.618160997
H       0.892808774      0.691751491     -0.552227103
H       0.965865431     -0.363713601      1.884465634
H      -0.699385105      0.715889268      2.062029168
H      -0.925278013     -0.173395612     -0.866098053
           6
  t=        15.00000    5    2
C       0.001930175     -0.046280674     -0.320416801
N      -0.018033396     -0.028373638      1.626989271
H       0.849075429      0.722357772     -0.562933534
H       0.969395870     -0.372923411      1.876335553
H      -0.679673807      0.758281767      2.040807345
H      -0.911223539     -0.162380094     -0.873009229
           6
  t=        15.50000    5    2
C       0.005539180     -0.048701226     -0.326423827
N      -0.020142056     -0.031609556      1.635985068
H       0.800190854      0.750329509     -0.573738662
H       0.967330710     -0.378436203      1.866385472
H      -0.654617668      0.796808557      2.015250421
H      -0.899003504     -0.149583660     -0.880163366
           6
  t=        16.00000    5    2
C       0.009752798     -0.050947670     -0.332063850
N      -0.022314595     -0.034886629      1.645134536
H       0.747350809      0.775941359     -0.584697901
H       0.959973876     -0.380177151      1.854836656
H      -0.624185500      0.831073534      1.985558060
H      -0.889223807     -0.135438621     -0.887934216
           6
  t=        16.50000    5    2
C       0.014474240     -0.053010218     -0.337326552
N      -0.024581267     -0.038185614      1.654414643
H       0.691938287      0.799663684     -0.595910253
H       0.948090293     -0.378284791      1.841954874
H      -0.588584525      0.860838161      1.951985287
H      -0.882252368     -0.120422170     -0.896546417
           6
  t=        17.00000    5    2
C       0.019579779     -0.054887380     -0.342203354
N      -0.026986675     -0.041479480      1.663792354
H       0.635421233      0.822109528     -0.607541494
H       0.932904021     -0.373159968      1.828024994
H      -0.548284120      0.886002691      1.914820178
H      -0.878218860     -0.105040105     -0.906050288
           6
  t=        17.50000    5    2
C       0.024937600     -0.056578210     -0.346678992
N      -0.029585551     -0.044727008      1.673220109
H       0.579215795      0.843912398     -0.619829247
H       0.916067967     -0.365531582      1.813322588
H      -0.504071798      0.906583219      1.874370569
H      -0.877074859     -0.089797075     -0.916312540
           6
  t=        18.00000    5    2
C       0.030429379     -0.058072404     -0.350724566
N      -0.032425229     -0.047854512      1.682616017
H       0.524577069      0.865520468     -0.632999526
H       0.899543924     -0.356585102      1.798107166
H      -0.457210622      0.922639906      1.831010271
H      -0.878707666     -0.075162482     -0.926946760
           6
  t=        18.50000    8    2
C       0.035960771     -0.059391346     -0.354286435
N      -0.035454490     -0.050630039      1.691704351
H       0.472551925      0.886969960     -0.646764607
H       0.885155299     -0.348708006      1.782978108
H      -0.410277286      0.933841362      1.785861488
H      -0.882999177     -0.061421867     -0.936769908
           6
  t=        19.00000    8    2
C       0.040463448     -0.060777009     -0.357691690
N      -0.038123684     -0.052385918      1.698640267
H       0.430887530      0.906072310     -0.653685716
H       0.875735462     -0.344082655      1.773226151
H      -0.371466770      0.940805382      1.751851931
H      -0.887251526     -0.051217864     -0.941911668
           6
  t=        19.50000    8    2
C       0.044965074     -0.062632656     -0.361876925
N      -0.041193728     -0.053195025      1.704670341
H       0.391332333      0.927662837     -0.653538243
H       0.872293224     -0.343790306      1.768026209
H      -0.333187455      0.944139020      1.722986205
H      -0.893477403     -0.043097418     -0.941944670
           6
  t=        20.00000    5    2
C       0.049647891     -0.065060090     -0.367210227
N      -0.044629936     -0.053063360      1.710166529
H       0.352458097      0.951665960     -0.646537684
H       0.874765593     -0.348618970      1.767058326
H      -0.296432862      0.944931472      1.699154167
H      -0.901843918     -0.035990609     -0.937008681
           6
  t=        20.50000    5    2
C       0.056048040     -0.068180887     -0.374645001
N      -0.049563515     -0.052720906      1.717686194
H       0.300436204      0.984728862     -0.635979691
H       0.880823344     -0.357167074      1.765936185
H      -0.245996559      0.945166283      1.665479878
H      -0.913972938     -0.028339491     -0.928726690
           6
  t=        21.00000    5    2
C       0.062036245     -0.070613982     -0.382024161
N      -0.054514062     -0.052133695      1.724789298
H       0.253730909      1.015624261     -0.623634110
H       0.890186724     -0.369377295      1.765324011
H      -0.198819980      0.944876202      1.631717745
H      -0.926323734     -0.025922954     -0.917528742
           6
  t=        21.50000    5    2
C       0.067559997     -0.072249254     -0.389385018
N      -0.059274525     -0.051369150      1.731462919
H       0.212435761      1.043384482     -0.609291960
H       0.900599015     -0.385120876      1.765306976
H      -0.155509105      0.944971386      1.598116929
H      -0.938378815     -0.029186620     -0.903334357
           6
  t=        22.00000    5    2
C       0.072567841     -0.072990535     -0.396741088
N      -0.063652828     -0.050471988      1.737687617
H       0.176636605      1.067085563     -0.592892752
H       0.909820046     -0.404110556      1.766026506
H      -0.116450872      0.945878557      1.564947638
H      -0.949653051     -0.038444278     -0.886184644
           6
  t=        22.50000    8    2
C       0.077011682     -0.072764966     -0.404083918
N      -0.067487532     -0.049456067      1.743434554
H       0.146405865      1.085951005     -0.574523728
H       0.915901474     -0.425976963      1.767665127
H      -0.081871583      0.947508126      1.532561463
H      -0.959714592     -0.053874143     -0.866226411
           6
  t=        23.00000    8    2
C       0.080861664     -0.071500200     -0.411367158
N      -0.070742231     -0.048363720      1.748796108
H       0.122191340      1.099164990     -0.554678299
H       0.917769396     -0.449614070      1.769232504
H      -0.051563532      0.949268033      1.500991980
H      -0.968295418     -0.075447640     -0.843844905
           6
  t=        23.50000    8    2
C       0.084068544     -0.069205560     -0.418570454
N      -0.073231964     -0.047106956      1.753590679
H       0.103588397      1.106602141     -0.533395423
H       0.913858693     -0.475339759      1.772155230
H      -0.025953650      0.950504711      1.471276237
H      -0.974982455     -0.103179475     -0.819183979
           6
  t=        24.00000    8    2
C       0.086605253     -0.065893768     -0.425643480
N      -0.074895056     -0.045648987      1.757764712
H       0.090526607      1.108137530     -0.511081527
H       0.903490337     -0.502779160      1.776655823
H      -0.005074376      0.950425089      1.444096830
H      -0.979528408     -0.136886217     -0.792597385
           6
  t=        24.50000    8    2
C       0.088454815     -0.061607918     -0.432528773
N      -0.075701169     -0.043958085      1.761265659
H       0.082855119      1.103897801     -0.488215819
H       0.886372378     -0.531586546      1.782938176
H       0.011107577      0.948335649      1.420166958
H      -0.981743137     -0.176274415     -0.764477101
           6
  t=        25.00000    8    2
C       0.089621419     -0.056425405     -0.439156245
N      -0.075649589     -0.042014996      1.764044520
H       0.080285826      1.094294765     -0.465390952
H       0.862555118     -0.561470653      1.791178716
H       0.022695138      0.943737895      1.400161420
H      -0.981551615     -0.220894686     -0.735235431
           6
  t=        25.50000    8    2
C       0.090165333     -0.050482852     -0.445465155
N      -0.074815845     -0.039853730      1.766129234
H       0.082328298      1.080346915     -0.443423475
H       0.832549204     -0.591838841      1.801224558
H       0.030192244      0.936351891      1.384234480
H      -0.979146152     -0.269978894     -0.705168595
           6
  t=        26.00000    8    2
C       0.090236154     -0.044004781     -0.451316938
N      -0.073324001     -0.037505757      1.767451106
H       0.087873551      1.063690918     -0.423378286
H       0.797243703     -0.621847075      1.813107898
H       0.034705958      0.925758369      1.373272827
H      -0.975471311     -0.322477877     -0.674826003
           6
  t=        26.50000    8    2
C       0.090288717     -0.037707030     -0.456305991
N      -0.071479625     -0.035171424      1.767712755
H       0.093811430      1.049649363     -0.405561619
H       0.758395021     -0.648157576      1.826762710
H       0.039735374      0.911906694      1.368077364
H      -0.973842429     -0.375694339     -0.645333817
           6
  t=        27.00000    7    1
C       0.089597100     -0.031290444     -0.460807716
N      -0.069126430     -0.032697939      1.767291993
H       0.103292578      1.036165759     -0.389205957
H       0.716465132     -0.675325135      1.841959681
H       0.041823270      0.897219990      1.366793532
H      -0.967942971     -0.431125028     -0.616155303
           6
  t=        27.50000    7    1
C       0.088037020     -0.024670613     -0.464923743
N      -0.066519540     -0.030172416      1.766209289
H       0.116060755      1.024146437     -0.375118826
H       0.672442902     -0.703083178      1.860009141
H       0.044394637      0.882001121      1.369859738
H      -0.956905986     -0.490040383     -0.587305964
           6
  t=        28.00000    7    1
C       0.085609719     -0.018380797     -0.468349757
N      -0.063688853     -0.027687991      1.764103576
H       0.131188803      1.015629789     -0.363599486
H       0.628333966     -0.731761181      1.882045253
H       0.046732478      0.869030466      1.379134247
H      -0.940692290     -0.549286207     -0.560085610
           6
  t=        28.50000    4    1
C       0.082375544     -0.012618318     -0.471109293
N      -0.060709055     -0.025328481      1.761108331
H       0.148299501      1.011990239     -0.354474405
H       0.584670958     -0.762278020      1.907532974
H       0.048783797      0.860332475      1.393170624
H      -0.919085122     -0.607828423     -0.534260653
           6
  t=        29.00000    4    1
C       0.078362258     -0.007453116     -0.473514102
N      -0.057922652     -0.023282839      1.757544539
H       0.167292319      1.014075838     -0.347064880
H       0.542847601     -0.793802110      1.935844013
H       0.053358496      0.857473465      1.410385981
H      -0.891759292     -0.665454867     -0.509046512
           6
  t=        29.50000    4    1
C       0.073655219     -0.003044548     -0.475193507
N      -0.055090487     -0.021661025      1.753249703
H       0.187321095      1.021805459     -0.342278326
H       0.501557511     -0.826674479      1.967003578
H       0.058690226      0.862449182      1.430620840
H      -0.859135152     -0.720313840     -0.485557316
           6
  t=        30.00000    4    1
C       0.068330444      0.000602845     -0.476095508
N      -0.052216936     -0.020595077      1.748258952
H       0.207853127      1.034376394     -0.340350404
H       0.460314855     -0.859709841      2.000583474
H       0.065253841      0.875887843      1.453685673
H      -0.821513335     -0.771527506     -0.464046913
           6
  t=        30.50000    4    1
C       0.062480886      0.003549681     -0.476153245
N      -0.049283002     -0.020153746      1.742572199
H       0.228304075      1.050370077     -0.341592172
H       0.418519893     -0.891336448      2.036026509
H       0.073318665      0.897164773      1.479916823
H      -0.779349821     -0.818390887     -0.444778304
           6
  t=        31.00000    4    1
C       0.056213500      0.005901116     -0.475290663
N      -0.046257818     -0.020325775      1.736162570
H       0.248056086      1.068030307     -0.346337158
H       0.375641823     -0.919855822      2.072684115
H       0.082912976      0.924432652      1.510016738
H      -0.733226608     -0.860407413     -0.428003986
           6
  t=        31.50000    4    1
C       0.049642631      0.007785534     -0.473429333
N      -0.043108855     -0.021030830      1.728993017
H       0.266505448      1.085542453     -0.354874746
H       0.331321338     -0.943671956      2.109864899
H       0.093853454      0.955006954      1.544769177
H      -0.683810788     -0.897318771     -0.413946047
           6
  t=        32.00000    4    1
C       0.042882109      0.009338951     -0.470494045
N      -0.039809174     -0.022146151      1.721034747
H       0.283117727      1.101238676     -0.367395183
H       0.285396236     -0.961452765      2.146861480
H       0.105809411      0.985897940      1.584748875
H      -0.631804724     -0.929124676     -0.402777033
           6
  t=        32.50000    4    1
C       0.036037651      0.010695391     -0.466416318
N      -0.036344145     -0.023532936      1.712282755
H       0.297480335      1.113721190     -0.383958847
H       0.237893180     -0.972218754      2.182934698
H       0.118386007      1.014265213      1.630117671
H      -0.577889660     -0.956090794     -0.394605107
           6
  t=        33.00000    4    1
C       0.029201143      0.011982041     -0.461140409
N      -0.032720118     -0.025052910      1.702767932
H       0.309333438      1.121916980     -0.404463285
H       0.189031490     -0.975389850      2.217260331
H       0.131220398      1.037686380      1.680509284
H      -0.522668087     -0.978737424     -0.389435151
           6
  t=        33.50000    4    1
C       0.022447029      0.013311161     -0.454633734
N      -0.028980040     -0.026574923      1.692564687
H       0.318578837      1.125107887     -0.428607622
H       0.139281619     -0.970791846      2.248896612
H       0.144117160      1.054262105      1.735027468
H      -0.466606517     -0.997780168     -0.387151835
           6
  t=        34.00000    4    1
C       0.015823641      0.014762011     -0.446910476
N      -0.025204229     -0.027982229      1.681773733
H       0.325265690      1.122935364     -0.455868843
H       0.089362339     -0.958502934      2.277035413
H       0.157113825      1.062601589      1.792581252
H      -0.409969887     -1.013957352     -0.387609595
           6
  t=        34.50000    4    1
C       0.009337600      0.016376974     -0.438031044
N      -0.021426222     -0.029195518      1.670452926
H       0.329565544      1.115304595     -0.485661221
H       0.039733199     -0.938496133      2.301596659
H       0.170050007      1.061757156      1.852582712
H      -0.352841819     -1.027860071     -0.390810703
           6
  t=        35.00000    4    1
C       0.002969449      0.018193170     -0.428042732
N      -0.017597270     -0.030172911      1.658614951
H       0.331754257      1.102330684     -0.517523767
H      -0.009638855     -0.910756722      2.322876454
H       0.182309943      1.051186893      1.914626948
H      -0.295294986     -1.040100079     -0.396720502
           6
  t=        35.50000    4    1
C      -0.003302010      0.020250490     -0.416954775
N      -0.013661560     -0.030889462      1.646271205
H       0.332202880      1.084445179     -0.551103257
H      -0.058833833     -0.875562310      2.340977512
H       0.193216470      1.030709936      1.977942487
H      -0.237466352     -1.051472078     -0.405071854
           6
  t=        36.00000    4    1
C      -0.009491260      0.022611516     -0.404703068
N      -0.009590322     -0.031341874      1.633401429
H       0.331392021      1.062549770     -0.586303197
H      -0.107782930     -0.833355303      2.355857670
H       0.202238496      1.000396777      2.041509834
H      -0.179601538     -1.063296763     -0.415381389
           6
  t=        36.50000    4    1
C      -0.015612535      0.025475919     -0.390718309
N      -0.005383948     -0.031563061      1.619597565
H       0.330503067      1.039972157     -0.624555263
H      -0.156049911     -0.783145745      2.367977544
H       0.208768616      0.959274843      2.105315905
H      -0.122535842     -1.080839376     -0.427773838
           6
  t=        37.00000    1    1
C      -0.021899866      0.027853114     -0.375494736
N      -0.001002009     -0.031196505      1.605484160
H       0.330305818      1.017826610     -0.663277654
H      -0.203960829     -0.729018793      2.376263993
H       0.213081534      0.909160637      2.166634512
H      -0.064762869     -1.096104376     -0.443824559
           6
  t=        37.50000    1    1
C      -0.028372826      0.029692493     -0.359427865
N       0.003539541     -0.030280092      1.591421575
H       0.330750726      0.995097269     -0.701806422
H      -0.251888678     -0.673476146      2.380242709
H       0.215750055      0.852374534      2.223493582
H      -0.005978158     -1.106765601     -0.462048751
           6
  t=        38.00000    1    1
C      -0.034986196      0.030838427     -0.342374658
N       0.008310580     -0.028847777      1.577309642
H       0.331844961      0.972550513     -0.739494381
H      -0.300621909     -0.618586323      2.379651581
H       0.216883139      0.791372734      2.274357819
H       0.052981262     -1.111652291     -0.481607541
           6
  t=        38.50000    1    1
C      -0.041668035      0.031225255     -0.324286068
N       0.013327443     -0.026970776      1.563105832
H       0.333405106      0.950452412     -0.775856800
H      -0.350863207     -0.566127729      2.374170219
H       0.217088661      0.728700576      2.318250349
H       0.111310105     -1.110026128     -0.501681490
           6
  t=        39.00000    1    1
C      -0.048313266      0.030876339     -0.305313939
N       0.018421677     -0.024610194      1.548878963
H       0.335342934      0.928393026     -0.810431793
H      -0.402248762     -0.517996646      2.364003193
H       0.217751298      0.665726674      2.354648110
H       0.168437496     -1.101768074     -0.521562187
           6
  t=        39.50000    1    1
C      -0.054825994      0.029823258     -0.285550883
N       0.023554016     -0.021887276      1.534697340
H       0.337334622      0.906278262     -0.842470702
H      -0.455328674     -0.475388481      2.348135170
H       0.220019895      0.605015787      2.383144371
H       0.223492285     -1.086844799     -0.540422574
           6
  t=        40.00000    1    1
C      -0.061100799      0.028124576     -0.265087405
N       0.028673584     -0.018909482      1.520571826
H       0.338989127      0.883901762     -0.871153883
H      -0.510500515     -0.438987371      2.325799831
H       0.224993869      0.548488974      2.403894406
H       0.275615359     -1.065491091     -0.557544550
           6
  t=        40.50000    1    1
C      -0.067025583      0.025860963     -0.244023182
N       0.033712401     -0.015781562      1.506514444
H       0.339866824      0.861105455     -0.895618513
H      -0.567886846     -0.408998203      2.296143807
H       0.233685260      0.497533962      2.417247288
H       0.323966648     -1.038236811     -0.572266851
           6
  t=        41.00000    1    1
C      -0.072488169      0.023125743     -0.222459493
N       0.038583040     -0.012599569      1.492541269
H       0.339529067      0.837860593     -0.915026336
H      -0.627200459     -0.385173940      2.258313675
H       0.246899839      0.452963808      2.423621033
H       0.367770888     -1.005889864     -0.584009785
           6
  t=        41.50000    1    1
C      -0.077382895      0.020017941     -0.200492189
N       0.043178263     -0.009446710      1.478670021
H       0.337581381      0.814307968     -0.928630735
H      -0.687662607     -0.366902400      2.211591750
H       0.265145045      0.415061320      2.423411004
H       0.406368300     -0.969509051     -0.592302531
           6
  t=        42.00000    1    1
C      -0.081616688      0.016638089     -0.178207268
N       0.047373135     -0.006392305      1.464914350
H       0.333704789      0.790764631     -0.935833304
H      -0.748011598     -0.353333816      2.155539650
H       0.288598535      0.383699795      2.416955623
H       0.439266151     -0.930368313     -0.596809289
           6
  t=        42.50000    1    1
C      -0.085115024      0.013086002     -0.155678988
N       0.051030564     -0.003492721      1.451276683
H       0.327675969      0.767705478     -0.936227396
H      -0.806604874     -0.343508606      2.090121828
H       0.317132938      0.358484255      2.404556492
H       0.466190085     -0.889912465     -0.597352273
           6
  t=        43.00000    4    1
C      -0.087826911      0.009459695     -0.132969455
N       0.054010103     -0.000792761      1.437742141
H       0.319378057      0.745732340     -0.929626645
H      -0.861584575     -0.336460018      2.015792498
H       0.350367223      0.338869081      2.386522322
H       0.487124367     -0.849709005     -0.593934544
           6
  t=        43.50000    4    1
C      -0.089802722      0.005759254     -0.110428415
N       0.056156164      0.001731206      1.424499529
H       0.308298222      0.725583609     -0.916325683
H      -0.911498159     -0.330117692      1.933714488
H       0.388546379      0.322724121      2.363507725
H       0.503645894     -0.810765907     -0.586537874
           6
  t=        44.00000    4    1
C      -0.090966755      0.002165814     -0.087800503
N       0.057375739      0.004000390      1.411275307
H       0.295041318      0.707988606     -0.896347881
H      -0.954210463     -0.324897113      1.845199296
H       0.430134536      0.310944310      2.335623451
H       0.514941434     -0.775353924     -0.575801086
           6
  t=        44.50000    4    1
C      -0.091338724     -0.001250372     -0.065134142
N       0.057583480      0.006009831      1.398018096
H       0.279827302      0.693786749     -0.870173675
H      -0.988372292     -0.320249304      1.752181324
H       0.474321662      0.302931445      2.303311296
H       0.521672450     -0.745030827     -0.562329477
           6
  t=        45.00000    4    1
C      -0.090944158     -0.004452830     -0.042541564
N       0.056738713      0.007780587      1.384718790
H       0.263009634      0.683962005     -0.838346417
H      -1.013172514     -0.315966652      1.656885140
H       0.520268070      0.298168337      2.267001839
H       0.524383133     -0.721197901     -0.546772005
           6
  t=        45.50000    4    1
C      -0.089945404     -0.007360887     -0.019967891
N       0.054924387      0.009306206      1.371258810
H       0.245233955      0.679251539     -0.801746013
H      -1.028758413     -0.311924237      1.561415360
H       0.566933347      0.296358235      2.227385508
H       0.524396068     -0.705291396     -0.530049657
           6
  t=        46.00000    4    1
C      -0.088385329     -0.009944822      0.002468858
N       0.052160681      0.010591735      1.357695650
H       0.226935120      0.680465297     -0.761494656
H      -1.035179933     -0.308095379      1.468046535
H       0.613462290      0.297120371      2.184717525
H       0.522411578     -0.698191152     -0.512963610
           6
  t=        46.50000    4    1
C      -0.086285744     -0.012189574      0.024572210
N       0.048519409      0.011645088      1.344152767
H       0.208645802      0.688303679     -0.718754806
H      -1.033022836     -0.304735522      1.379039321
H       0.658883801      0.300222442      2.139220576
H       0.518715747     -0.700399140     -0.496210733
           6
  t=        47.00000    4    1
C      -0.083629850     -0.014079016      0.046059869
N       0.044133052      0.012472574      1.330823050
H       0.190957633      0.703280378     -0.674586074
H      -1.023447204     -0.302469331      1.296430891
H       0.702078691      0.305675085      2.091128687
H       0.512955451     -0.712094675     -0.480321427
           6
  t=        47.50000    4    1
C      -0.080341835     -0.015574031      0.066582129
N       0.039205023      0.013073595      1.317959261
H       0.174385355      0.725640453     -0.629827115
H      -1.008236437     -0.302348702      1.221726896
H       0.741747542      0.313812249      2.040766776
H       0.503969790     -0.733262347     -0.465635704
           6
  t=        48.00000    1    1
C      -0.076267590     -0.016617282      0.085766161
N       0.034012127      0.013446095      1.305851053
H       0.158988375      0.755269671     -0.585120674
H      -0.989876456     -0.305640240      1.155572640
H       0.776456827      0.325122030      1.988678715
H       0.489937834     -0.763663535     -0.452285282
           6
  t=        48.50000    1    1
C      -0.071769010     -0.017409911      0.103766329
N       0.028922375      0.013708232      1.294481039
H       0.144105111      0.787751775     -0.541436344
H      -0.971731635     -0.311030118      1.094723145
H       0.807510753      0.337895305      1.936968544
H       0.472777078     -0.797733450     -0.439756087
           6
  t=        49.00000    1    1
C      -0.066166156     -0.017767019      0.119456187
N       0.024158032      0.013800329      1.284640900
H       0.129028611      0.825816935     -0.498918334
H      -0.956387295     -0.321133851      1.042242498
H       0.831469669      0.353662732      1.885284150
H       0.448035291     -0.838489803     -0.428203328
           6
  t=        49.50000    1    1
C      -0.059405364     -0.017712168      0.132178596
N       0.019920353      0.013740544      1.276819047
H       0.113406583      0.867850413     -0.457925854
H      -0.946091262     -0.336134992      0.998241771
H       0.847886425      0.372187466      1.834620896
H       0.415324485     -0.883869195     -0.417335970
           6
  t=        50.00000    1    1
C      -0.051494884     -0.017242975      0.141281483
N       0.016315917      0.013508643      1.271480272
H       0.097299754      0.911904298     -0.418736425
H      -0.942120213     -0.356031136      0.963017751
H       0.856667384      0.393469652      1.786002358
H       0.374571614     -0.931673508     -0.406890713
           6
  t=        50.50000    1    1
C      -0.042496079     -0.016345647      0.146240453
N       0.013360555      0.013045634      1.268985527
H       0.081062890      0.955963491     -0.381656876
H      -0.944690667     -0.380548835      0.936886785
H       0.858005355      0.417747250      1.740451601
H       0.325956328     -0.979743619     -0.396671460
           6
  t=        51.00000    1    1
C      -0.032520116     -0.015019436      0.146761975
N       0.010998406      0.012264646      1.269523347
H       0.065225441      0.998170592     -0.347084632
H      -0.953048309     -0.409079317      0.920025775
H       0.852306078      0.445430047      1.698966046
H       0.269888878     -1.026042562     -0.386579634
           6
  t=        51.50000    1    1
C      -0.021733253     -0.013298812      0.142856436
N       0.009144976      0.011073587      1.273067548
H       0.050381461      1.036978640     -0.315559832
H      -0.965774146     -0.440686035      0.912309736
H       0.840048416      0.476983496      1.662534229
H       0.207030989     -1.068735429     -0.376698547
           6
  t=        52.00000    1    1
C      -0.010361661     -0.011217998      0.134859068
N       0.007737735      0.009374007      1.279370050
H       0.037080771      1.071063090     -0.287716253
H      -0.981155480     -0.474112481      0.913151300
H       0.821604977      0.512915090      1.632107039
H       0.138309293     -1.106486256     -0.367302536
           6
  t=        52.50000    1    1
C       0.001417996     -0.008811057      0.123263263
N       0.006636940      0.007048643      1.288014052
H       0.025777875      1.099283808     -0.263852705
H      -0.997125967     -0.508015356      0.922218212
H       0.797609926      0.553785604      1.608176920
H       0.064613951     -1.138024121     -0.358336567
           6
  t=        53.00000    1    1
C       0.013415529     -0.006162341      0.108745052
N       0.005746766      0.004048444      1.298468709
H       0.016777152      1.120863180     -0.244260929
H      -1.011941106     -0.541209554      0.938887105
H       0.768563574      0.599765872      1.591062600
H      -0.013008281     -1.162241443     -0.349877899
           6
  t=        53.50000    1    1
C       0.025340356     -0.002940863      0.092347590
N       0.005002949      0.000400452      1.310080540
H       0.010387578      1.133091232     -0.229564083
H      -1.024444783     -0.573687540      0.961038058
H       0.735978626      0.650243711      1.580670191
H      -0.093182355     -1.180140351     -0.342430525
           6
  t=        54.00000    1    1
C       0.037233596      0.000450440      0.074284903
N       0.004155466     -0.004039032      1.322410687
H       0.007147826      1.137467083     -0.219861438
H      -1.031778808     -0.602864485      0.992649412
H       0.698208417      0.704960535      1.576641353
H      -0.174674166     -1.188751875     -0.335965913
           6
  t=        54.50000    1    1
C       0.048949104      0.003850388      0.055128491
N       0.003199499     -0.009205030      1.334998964
H       0.007388459      1.134365713     -0.215428372
H      -1.032815380     -0.627716601      1.034355432
H       0.654209379      0.762585016      1.578590960
H      -0.256091433     -1.187127190     -0.330868585
           6
  t=        55.00000    1    1
C       0.060273839      0.007065228      0.035463974
N       0.002206710     -0.014893441      1.347436832
H       0.011229226      1.124410228     -0.216284493
H      -1.027114763     -0.647860318      1.085502753
H       0.603422199      0.821050269      1.586163726
H      -0.335893426     -1.174734909     -0.327406774
           6
  t=        55.50000    1    1
C       0.071016093      0.009875810      0.015804823
N       0.001185190     -0.020864338      1.359372534
H       0.018398628      1.108613253     -0.222269650
H      -1.014058009     -0.662728406      1.145393095
H       0.545929097      0.877806570      1.598955988
H      -0.412339545     -1.151329409     -0.325865069
           6
  t=        56.00000    1    1
C       0.081034978      0.012127977     -0.003411717
N       0.000129889     -0.026931935      1.370521125
H       0.028857997      1.088304089     -0.233479033
H      -0.993160320     -0.671907541      1.213822989
H       0.481653305      0.930500732      1.616393172
H      -0.484051496     -1.117046025     -0.326617315
           6
  t=        56.50000    1    1
C       0.090198482      0.013670892     -0.021822014
N      -0.000956226     -0.032918995      1.380675839
H       0.042664709      1.065222690     -0.250029606
H      -0.964302340     -0.675351721      1.290298817
H       0.410789621      0.977024648      1.637819760
H      -0.549870173     -1.072229156     -0.329854210
           6
  t=        57.00000    1    1
C       0.098381262      0.014345528     -0.039126588
N      -0.002066427     -0.038646231      1.389696169
H       0.059898657      1.041476482     -0.271973402
H      -0.927798534     -0.673421087      1.373993236
H       0.333949154      1.015575951      1.662518552
H      -0.608773140     -1.017421333     -0.335592821
           6
  t=        57.50000    1    1
C       0.105464987      0.013999313     -0.055080130
N      -0.003177001     -0.043922864      1.397495144
H       0.080671439      1.019353502     -0.299273697
H      -0.884541839     -0.666985349      1.463796517
H       0.252122581      1.044701712      1.689730706
H      -0.659890295     -0.953422035     -0.343713724
           6
  t=        58.00000    1    1
C       0.111337673      0.012517475     -0.069496160
N      -0.004229228     -0.048540643      1.404026442
H       0.105161346      1.000933720     -0.331737127
H      -0.836182648     -0.657535470      1.558472471
H       0.166598853      1.063374762      1.718690964
H      -0.702520982     -0.881320046     -0.353985603
           6
  t=        58.50000    1    1
C       0.115898434      0.009867085     -0.082268431
N      -0.005129945     -0.052282591      1.409269093
H       0.133619400      0.987569289     -0.368890638
H      -0.785087553     -0.647141291      1.656979919
H       0.078880248      1.071085849      1.748689834
H      -0.736145094     -0.802511097     -0.366104574
           6
  t=        59.00000    1    1
C       0.119106301      0.006135570     -0.093358789
N      -0.005822898     -0.054943566      1.413224982
H       0.166217087      0.979632269     -0.410021192
H      -0.733448472     -0.638004952      1.758638678
H      -0.009312965      1.067621920      1.779004866
H      -0.760756294     -0.718843346     -0.379861490
           6
  t=        59.50000    1    1
C       0.121021173      0.001532729     -0.102756799
N      -0.006352656     -0.056367794      1.415941159
H       0.202924664      0.976561505     -0.454206869
H      -0.682333589     -0.631850920      1.862682826
H      -0.096076160      1.052931088      1.808704978
H      -0.777255211     -0.632641704     -0.395259247
           6
  t=        60.00000    1    1
C       0.121787431     -0.003628705     -0.110498146
N      -0.006860317     -0.056509466      1.417534072
H       0.243538419      0.976881708     -0.500151259
H      -0.631529036     -0.629443653      1.967814439
H      -0.179517712      1.027460040      1.836758873
H      -0.787302304     -0.546473271     -0.412458128
           6
  t=        60.50000    1    1
C       0.121629806     -0.008976266     -0.116672663
N      -0.007556535     -0.055450818      1.418212393
H       0.287663896      0.978551255     -0.546249550
H      -0.579789472     -0.630490781      2.071900144
H      -0.257930772      0.992243114      1.862166688
H      -0.793204215     -0.462915383     -0.431759438
           6
  t=        61.00000    1    1
C       0.120839287     -0.014142781     -0.121412307
N      -0.008661685     -0.053365111      1.418263099
H       0.334718229      0.979447907     -0.590790778
H      -0.525556620     -0.634078162      2.172118460
H      -0.329929939      0.948796029      1.884023199
H      -0.797724576     -0.384240207     -0.453563586
           6
  t=        61.50000    1    1
C       0.119728712     -0.018828913     -0.124882560
N      -0.010349832     -0.050464735      1.418002888
H       0.383983457      0.977726630     -0.632149640
H      -0.467618584     -0.639219975      2.265538493
H      -0.394565222      0.898970976      1.901568257
H      -0.803613662     -0.312053825     -0.478234814
           6
  t=        62.00000    1    1
C       0.118570232     -0.022840430     -0.127286126
N      -0.012724786     -0.046966197      1.417730807
H       0.434679586      0.971974392     -0.668912505
H      -0.405332480     -0.645154760      2.349668892
H      -0.451416552      0.844817224      1.914235122
H      -0.812952551     -0.247058410     -0.505870147
           6
  t=        62.50000    4    1
C       0.117546330     -0.026091535     -0.128876015
N      -0.015818790     -0.043077889      1.417702647
H       0.486026279      0.961208356     -0.699956978
H      -0.338524293     -0.651368713      2.422743769
H      -0.500709616      0.788468378      1.921709096
H      -0.826634010     -0.189044629     -0.536052892
           6
  t=        63.00000    4    1
C       0.116788539     -0.028654829     -0.130169921
N      -0.019504637     -0.039026406      1.418329071
H       0.536917791      0.944832621     -0.724386420
H      -0.267605117     -0.657180952      2.483073437
H      -0.544373119      0.732092742      1.923457260
H      -0.844546108     -0.136252934     -0.566998874
           6
  t=        63.50000    4    1
C       0.116318318     -0.030416089     -0.131322205
N      -0.023830420     -0.034977903      1.419586849
H       0.587063958      0.921724655     -0.741524480
H      -0.192196054     -0.662535865      2.530591154
H      -0.583079767      0.677561087      1.920076104
H      -0.865692150     -0.088538596     -0.597753509
           6
  t=        64.00000    4    1
C       0.116641887     -0.030840182     -0.133308978
N      -0.028897967     -0.031259656      1.421831638
H       0.635215748      0.887344811     -0.749324146
H      -0.111931499     -0.667231309      2.565360722
H      -0.619277029      0.627548062      1.911893192
H      -0.891353886     -0.046063206     -0.624074371
           6
  t=        64.50000    4    1
C       0.117007420     -0.030611183     -0.135488635
N      -0.034214932     -0.027851749      1.424741184
H       0.682330173      0.845787143     -0.749995200
H      -0.027360656     -0.669967581      2.586771872
H      -0.656245527      0.581594524      1.899825268
H      -0.916547463     -0.005892935     -0.647220153
           6
  t=        65.00000    4    1
C       0.116991507     -0.029836100     -0.137769723
N      -0.039440971     -0.024842747      1.428152792
H       0.729465771      0.797837507     -0.744136571
H       0.060969109     -0.669761008      2.594632693
H      -0.697096170      0.539862467      1.884920081
H      -0.938360539      0.032545393     -0.666276143
           6
  t=        65.50000    4    1
C       0.116430708     -0.028516081     -0.140038016
N      -0.044357570     -0.022296321      1.431899307
H       0.776876178      0.743520827     -0.732291441
H       0.152307644     -0.665664978      2.588908112
H      -0.743867681      0.501919383      1.867978249
H      -0.955347925      0.069611043     -0.680502239
           6
  t=        66.00000    1    1
C       0.115193388     -0.026651011     -0.142116377
N      -0.048815455     -0.020224473      1.435811867
H       0.824784108      0.683109632     -0.715134440
H       0.245554904     -0.656790238      2.569612873
H      -0.797292815      0.466698313      1.849487555
H      -0.966406256      0.105374624     -0.689489263
           6
  t=        66.50000    1    1
C       0.113313277     -0.024340352     -0.144185957
N      -0.052940508     -0.018591360      1.440056344
H       0.873049798      0.617650315     -0.692627696
H       0.340211799     -0.642829682      2.536434553
H      -0.855979327      0.433809578      1.829601526
H      -0.970941488      0.139558571     -0.693263939
           6
  t=        67.00000    1    1
C       0.110591402     -0.021504061     -0.145641260
N      -0.056564059     -0.017334511      1.444175980
H       0.922175204      0.547169178     -0.666424210
H       0.433693515     -0.622709658      2.490158399
H      -0.918532579      0.400319044      1.808237400
H      -0.968239815      0.172175988     -0.691738945
           6
  t=        67.50000    1    1
C       0.107010652     -0.018154412     -0.146250940
N      -0.059756141     -0.016382553      1.447986432
H       0.972139059      0.472212016     -0.637367047
H       0.524161030     -0.596060678      2.431570725
H      -0.982139690      0.364616913      1.785566086
H      -0.958077034      0.203075871     -0.685221680
           6
  t=        68.00000    1    1
C       0.102702711     -0.014329521     -0.145783457
N      -0.062740707     -0.015620934      1.451216544
H       1.022274649      0.393260177     -0.606242549
H       0.610331281     -0.563228419      2.362317234
H      -1.043109449      0.325437746      1.762187923
H      -0.940650861      0.232250203     -0.674161243
           6
  t=        68.50000    1    1
C       0.097741346     -0.010016758     -0.144136493
N      -0.065575035     -0.015069123      1.453887912
H       1.072100177      0.310652414     -0.573327958
H       0.690529793     -0.524016537      2.282534166
H      -1.098744792      0.282562257      1.737364043
H      -0.916584531      0.259503286     -0.659196097
           6
  t=        69.00000    1    1
C       0.092301853     -0.005227997     -0.141135987
N      -0.068307625     -0.014715959      1.455793841
H       1.120430600      0.224704691     -0.538913993
H       0.763146278     -0.478738305      2.193712195
H      -1.146749405      0.235960690      1.711673089
H      -0.886792398      0.284848512     -0.641305457
           6
  t=        69.50000    1    1
C       0.086660104     -0.000008695     -0.136611578
N      -0.070984605     -0.014543633      1.456703478
H       1.165581528      0.135842277     -0.503199271
H       0.826917005     -0.428038821      2.097731585
H      -1.185298874      0.185921128      1.685884292
H      -0.852794585      0.308511422     -0.621761128
           6
  t=        70.00000    1    1
C       0.081171741      0.005548361     -0.130391981
N      -0.073640477     -0.014530163      1.456384904
H       1.205583120      0.044727065     -0.466369221
H       0.880963534     -0.372811812      1.996737598
H      -1.213114043      0.132973182      1.660814732
H      -0.816777163      0.330993603     -0.602157079
           6
  t=        70.50000    1    1
C       0.076237038      0.011295849     -0.122301608
N      -0.076299040     -0.014649128      1.454619866
H       1.238472898     -0.047685918     -0.428680551
H       0.924821698     -0.314126950      1.893038222
H      -1.229428813      0.077799446      1.637248533
H      -0.781514918      0.353114154     -0.584386974
           6
  t=        71.00000    1    1
C       0.072249249      0.017040802     -0.112172064
N      -0.078973676     -0.014871935      1.451219121
H       1.262558669     -0.140189133     -0.390502270
H       0.958416897     -0.253140950      1.788982004
H      -1.233934520      0.021168897      1.615882757
H      -0.750046187      0.375953609     -0.570503036
           6
  t=        71.50000    1    1
C       0.069526860      0.022572950     -0.099872525
N      -0.081664009     -0.015171924      1.446035305
H       1.276579598     -0.231424665     -0.352310755
H       0.981987418     -0.191003219      1.686845123
H      -1.226740733     -0.036106511      1.597301399
H      -0.725036218      0.400624736     -0.562399232
           6
  t=        72.00000    1    1
C       0.068243268      0.027707387     -0.085353968
N      -0.084349663     -0.015527916      1.438971096
H       1.279762935     -0.319997835     -0.314655184
H       0.995995175     -0.128777144      1.588756856
H      -1.208378346     -0.093200823      1.581976044
H      -0.707991019      0.427877670     -0.561358722
           6
  t=        72.50000    1    1
C       0.068386057      0.032324330     -0.068690549
N      -0.086984064     -0.015925520      1.429983797
H       1.271810402     -0.404570112     -0.278105422
H       1.001079034     -0.067387277      1.496660021
H      -1.179855408     -0.149304047      1.570289509
H      -0.698742406      0.457714701     -0.567661080
           6
  t=        73.00000    1    1
C       0.069772812      0.036384289     -0.050095179
N      -0.089489642     -0.016355882      1.419087516
H       1.252848285     -0.483919355     -0.243193405
H       0.998059627     -0.007586380      1.412279194
H      -1.142750658     -0.203670725      1.562575636
H      -0.695564350      0.489268188     -0.580493697
           6
  t=        73.50000    1    1
C       0.072114203      0.039912405     -0.029902458
N      -0.091756165     -0.016811558      1.406352887
H       1.223376817     -0.556972068     -0.210363764
H       0.987978162      0.050057738      1.337088614
H      -1.099299156     -0.255700278      1.559175576
H      -0.695849858      0.521029087     -0.598224750
           6
  t=        74.00000    1    1
C       0.075083761      0.042968669     -0.008534751
N      -0.093643848     -0.017280701      1.391903002
H       1.184246328     -0.622808149     -0.179954419
H       0.972126484      0.105138752      1.272323597
H      -1.052391327     -0.305024931      1.560512945
H      -0.696905656      0.551236935     -0.618856479
           6
  t=        74.50000    1    1
C       0.078362429      0.045621500      0.013525246
N      -0.094993337     -0.017742637      1.375906553
H       1.136654541     -0.680638160     -0.152247751
H       0.952003970      0.157350396      1.219123894
H      -1.005374990     -0.351537269      1.567169639
H      -0.696496203      0.578199251     -0.640424632
           6
  t=        75.00000    1    1
C       0.081666062      0.047926588      0.035743367
N      -0.095659949     -0.018165211      1.358583368
H       1.082023395     -0.729819361     -0.127527177
H       0.929289320      0.206514541      1.178617757
H      -0.961583047     -0.395414712      1.579883979
H      -0.693016265      0.600518958     -0.661206547
           6
  t=        75.50000    1    1
C       0.084763016      0.049921401      0.057548306
N      -0.095586606     -0.018514179      1.340221635
H       1.021846045     -0.769981358     -0.106020432
H       0.905956688      0.252730746      1.151639704
H      -0.923580920     -0.437099370      1.599421192
H      -0.685402601      0.617246312     -0.679775947
           6
  t=        76.00000    1    1
C       0.087474940      0.051641861      0.078351151
N      -0.094870715     -0.018789555      1.321196645
H       0.957745934     -0.801131240     -0.087897806
H       0.884242878      0.296403742      1.138469057
H      -0.892403893     -0.476881430      1.626340945
H      -0.673003227      0.627846307     -0.695003880
           6
  t=        76.50000    1    1
C       0.089674431      0.053146876      0.097539826
N      -0.093772019     -0.019062065      1.302005292
H       0.891591433     -0.823710035     -0.073373623
H       0.866330403      0.338114074      1.138797877
H      -0.867325785     -0.514372347      1.660699239
H      -0.655469235      0.632072185     -0.706040229
           6
  t=        77.00000    1    1
C       0.091283872      0.054536836      0.114456419
N      -0.092652524     -0.019472426      1.283298536
H       0.825518808     -0.838648455     -0.062794426
H       0.853891853      0.378415573      1.151819866
H      -0.846338832     -0.548383725      1.701832827
H      -0.632663255      0.629872283     -0.712279924
           6
  t=        77.50000    1    1
C       0.092291111      0.055928654      0.128375958
N      -0.091879720     -0.020172228      1.265882875
H       0.761754244     -0.847250025     -0.056700755
H       0.847603188      0.417519901      1.176527934
H      -0.826962753     -0.577296982      1.748353179
H      -0.604716995      0.621434028     -0.713360452
           6
  t=        78.00000    1    1
C       0.092786085      0.057382990      0.138563201
N      -0.091765262     -0.021239834      1.250658137
H       0.702348977     -0.850898300     -0.055851791
H       0.846945812      0.455026747      1.211831990
H      -0.806848353     -0.599624157      1.798363528
H      -0.572252894      0.607419900     -0.709283886
           6
  t=        78.50000    1    1
C       0.092908916      0.058964419      0.144395502
N      -0.092545951     -0.022705045      1.238515701
H       0.649294535     -0.851341925     -0.061101975
H       0.850549445      0.490149408      1.256070821
H      -0.784155378     -0.614193818      1.849789763
H      -0.536110662      0.588838989     -0.700431880
           6
  t=        79.00000    1    1
C       0.091954203      0.062241012      0.145421567
N      -0.094299128     -0.025427354      1.230314586
H       0.607453991     -0.857842406     -0.073974985
H       0.857524554      0.524782914      1.305070410
H      -0.757899680     -0.617483457      1.901398629
H      -0.491774314      0.562806588     -0.686435507
           6
  t=        79.50000    1    1
C       0.091252606      0.065146235      0.141598786
N      -0.097241538     -0.028236266      1.226558133
H       0.573443126     -0.862208729     -0.094815046
H       0.864746518      0.554931638      1.358789801
H      -0.726611830     -0.612894541      1.950409009
H      -0.447036845      0.536871393     -0.670614713
           6
  t=        80.00000    1    1
C       0.091014637      0.067450231      0.133247418
N      -0.101301842     -0.031005377      1.227419935
H       0.547393906     -0.865339185     -0.123744377
H       0.870070830      0.579999988      1.415155976
H      -0.689972755     -0.600831269      1.995343121
H      -0.403702527      0.513912052     -0.655521706
           6
  t=        80.50000    1    1
C       0.091434975      0.068755391      0.121125645
N      -0.106325291     -0.033551606      1.232712690
H       0.528433421     -0.867981542     -0.160651321
H       0.871408610      0.600183795      1.472380784
H      -0.647712134     -0.582446097      2.035075445
H      -0.363548023      0.497823417     -0.644779566
           6
  t=        81.00000    1    1
C       0.092667833      0.068522779      0.106289242
N      -0.112048983     -0.035632649      1.241950426
H       0.514138952     -0.870995174     -0.205106679
H       0.866371363      0.616862105      1.529311325
H      -0.599448679     -0.559970707      2.068837893
H      -0.327632449      0.493367869     -0.642715193
           6
  t=        81.50000    1    1
C       0.094764256      0.066303375      0.089780526
N      -0.118076272     -0.037005396      1.254464824
H       0.501216506     -0.875273707     -0.255985265
H       0.852448798      0.631766525      1.585684503
H      -0.545277600     -0.536302911      2.096348800
H      -0.296175243      0.504573789     -0.653033842
           6
  t=        82.00000    1    1
C       0.097637769      0.061917080      0.072408999
N      -0.123998862     -0.037488660      1.269510794
H       0.487469940     -0.881042849     -0.311632485
H       0.828041356      0.645584914      1.641270712
H      -0.486332216     -0.513894134      2.118103613
H      -0.268890772      0.533057382     -0.676941995
           6
  t=        82.50000    1    1
C       0.101075954      0.055411328      0.054681620
N      -0.129479981     -0.036931802      1.286324908
H       0.471775659     -0.887938987     -0.370378137
H       0.792452143      0.658343225      1.695420661
H      -0.424274201     -0.494898522      2.135454878
H      -0.244446829      0.577925391     -0.712242040
           6
  t=        83.00000    1    1
C       0.104800606      0.047021216      0.036840981
N      -0.134255645     -0.035195487      1.304165553
H       0.453528325     -0.895391521     -0.430700275
H       0.745538724      0.669931043      1.747228955
H      -0.360822691     -0.481513496      2.150474199
H      -0.220731870      0.636179854     -0.754206427
           6
  t=        83.50000    1    1
C       0.108546477      0.037105674      0.019003128
N      -0.138137109     -0.032163119      1.322355360
H       0.432431235     -0.902853979     -0.491270900
H       0.687548402      0.680300864      1.795667790
H      -0.297419940     -0.475942885      2.165528882
H      -0.195718487      0.703631866     -0.797472766
           6
  t=        84.00000    1    1
C       0.112138251      0.026031068      0.001061756
N      -0.141044758     -0.027780967      1.340418115
H       0.408076204     -0.909738635     -0.550477318
H       0.619037383      0.690028219      1.840000923
H      -0.234809507     -0.480245738      2.182516382
H      -0.167829872      0.776068411     -0.836932569
           6
  t=        84.50000    1    1
C       0.115470398      0.014181599     -0.016952519
N      -0.142993240     -0.022096315      1.357999596
H       0.380473162     -0.915642752     -0.607107410
H       0.541155024      0.699831782      1.879516987
H      -0.173295200     -0.495564845      2.202053270
H      -0.136461434      0.849593227     -0.869145949
           6
  t=        85.00000    1    1
C       0.118486364      0.001928440     -0.034890740
N      -0.144043493     -0.015275790      1.374898912
H       0.349889157     -0.920284283     -0.660255733
H       0.455406782      0.710583881      1.913594391
H      -0.113029128     -0.521873169      2.223026948
H      -0.101713513      0.920920587     -0.892266566
           6
  t=        85.50000    1    1
C       0.121177281     -0.010400446     -0.052603346
N      -0.144298064     -0.007610102      1.391053318
H       0.316606764     -0.923491125     -0.709169787
H       0.363540852      0.723657614      1.942124401
H      -0.054076836     -0.558015165      2.242981486
H      -0.064020928      0.987483994     -0.905391236
           6
  t=        86.00000    1    1
C       0.123558446     -0.022513155     -0.069936478
N      -0.143867539      0.000511577      1.406444887
H       0.280954305     -0.925211980     -0.753265991
H       0.267397552      0.740782667      1.965639339
H       0.003372353     -0.601877536      2.258982087
H      -0.024008595      1.047320765     -0.908283968
           6
  t=        86.50000    1    1
C       0.125652867     -0.034149985     -0.086743193
N      -0.142840774      0.008653124      1.421039687
H       0.243308172     -0.925506819     -0.792123231
H       0.168619738      0.763718078      1.985244953
H       0.058957343     -0.650702523      2.268407920
H       0.017625972      1.098941519     -0.901128924
           6
  t=        87.00000    1    1
C       0.127481232     -0.045082237     -0.102895789
N      -0.141259921      0.016405587      1.434785415
H       0.204087247     -0.924532830     -0.825478404
H       0.068320417      0.793659509      2.002195579
H       0.112173103     -0.701438402      2.269378762
H       0.060195244      1.141215107     -0.884357153
           6
  t=        87.50000    1    1
C       0.129057199     -0.055111379     -0.118292819
N      -0.139115442      0.023466882      1.447649793
H       0.163749108     -0.922529764     -0.853216898
H      -0.033005806      0.830509051      2.017237654
H       0.162404255     -0.751052266      2.260847513
H       0.103067290      1.173279650     -0.858542034
           6
  t=        88.00000    1    1
C       0.130383718     -0.064069028     -0.132853073
N      -0.136375105      0.029689049      1.459635560
H       0.122793294     -0.919772995     -0.875347962
H      -0.135100318      0.872472582      2.030261428
H       0.208971685     -0.796760074      2.242591616
H       0.145680104      1.194471484     -0.824346998
           6
  t=        88.50000    1    1
C       0.131451456     -0.071832172     -0.146492697
N      -0.133031605      0.035094210      1.470723566
H       0.081758978     -0.916436452     -0.891977048
H      -0.237376618      0.916262421      2.040648949
H       0.251267914     -0.836348529      2.215341534
H       0.187525089      1.204266888     -0.782511490
           6
  t=        89.00000    1    1
C       0.132271923     -0.078315347     -0.159166508
N      -0.129131378      0.039829750      1.480964880
H       0.041098629     -0.912737460     -0.903322490
H      -0.338758083      0.957999241      2.047217420
H       0.288772017     -0.868420395      2.180028776
H       0.228102279      1.202299862     -0.733813435
           6
  t=        89.50000    1    1
C       0.132881358     -0.083431061     -0.170868808
N      -0.124757712      0.044014359      1.490457596
H       0.001078708     -0.909043256     -0.909691567
H      -0.437768569      0.994442234      2.048841565
H       0.320932980     -0.891834020      2.137496481
H       0.266945787      1.188345885     -0.679094205
           6
  t=        90.00000    1    1
C       0.133324779     -0.087114809     -0.181592350
N      -0.120013289      0.047729472      1.499249380
H      -0.038159057     -0.905692942     -0.911451459
H      -0.532784982      1.023226309      2.045000233
H       0.347293175     -0.905752324      2.088845926
H       0.303639116      1.162372591     -0.619315341
           6
  t=        90.50000    1    1
C       0.133649129     -0.089340573     -0.191317503
N      -0.115004616      0.051028039      1.507338885
H      -0.076550104     -0.902954266     -0.909007217
H      -0.622275374      1.042813796      2.035687932
H       0.367525920     -0.909706488      2.035404489
H       0.337833314      1.124671045     -0.555608699
           6
  t=        91.00000    1    1
C       0.133895436     -0.090139809     -0.200007978
N      -0.109834912      0.053949495      1.514689177
H      -0.114069406     -0.900991445     -0.902771275
H      -0.704918859      1.052317308      2.021239169
H       0.381463045     -0.903643994      1.978683346
H       0.369296298      1.076066957     -0.489326436
           6
  t=        91.50000    1    1
C       0.134087770     -0.089630324     -0.207611477
N      -0.104606273      0.056538986      1.521240358
H      -0.150700481     -0.899836310     -0.893130940
H      -0.779633767      1.051303799      2.002179733
H       0.389147501     -0.888011794      1.920356168
H       0.398018944      1.018247586     -0.422071178
           6
  t=        92.00000    4    1
C       0.134216018     -0.088054801     -0.214065376
N      -0.099428892      0.058868523      1.526919306
H      -0.186411344     -0.899370478     -0.880427374
H      -0.845552584      1.039633588      1.979123197
H       0.390923698     -0.863894777      1.862246259
H       0.424408805      0.954208168     -0.355668278
           6
  t=        92.50000    4    1
C       0.134275880     -0.086170226     -0.219825476
N      -0.094414914      0.061096232      1.532044057
H      -0.221135670     -0.899125926     -0.866514032
H      -0.905809753      1.022815262      1.954704470
H       0.390108487     -0.836829536      1.806024214
H       0.449826532      0.890324935     -0.291561576
           6
  t=        93.00000    4    1
C       0.134056098     -0.084172788     -0.224352683
N      -0.089743873      0.063355665      1.536150901
H      -0.254783283     -0.898951743     -0.850090252
H      -0.955990721      0.995506274      1.927529516
H       0.385377398     -0.805906241      1.753893891
H       0.476101788      0.831360035     -0.231837498
           6
  t=        93.50000    4    1
C       0.133336987     -0.082664944     -0.227676699
N      -0.085614149      0.065881976      1.539185879
H      -0.287255296     -0.898507714     -0.831457393
H      -0.995616852      0.957921208      1.898174362
H       0.378518170     -0.774843644      1.707693980
H       0.506241404      0.784383484     -0.177506004
           6
  t=        94.00000    4    1
C       0.131898187     -0.082079488     -0.229855327
N      -0.082253642      0.068954905      1.541104787
H      -0.318511711     -0.897643766     -0.811084823
H      -1.024290113      0.910311250      1.867234329
H       0.371711454     -0.748153975      1.669095668
H       0.543417039      0.754772649     -0.129061833
           6
  t=        94.50000    4    1
C       0.129636603     -0.082439793     -0.230766020
N      -0.079881306      0.072821292      1.541759457
H      -0.348696367     -0.896629772     -0.789926352
H      -1.041653708      0.852821241      1.835656843
H       0.366888676     -0.730343622      1.639984954
H       0.589754049      0.744007568     -0.087785015
           6
  t=        95.00000    4    1
C       0.126547152     -0.083330674     -0.229350788
N      -0.078731900      0.077447949      1.540252453
H      -0.378232155     -0.896206882     -0.770386439
H      -1.046899067      0.785791970      1.805990158
H       0.365649229     -0.724074430      1.624365952
H       0.646589709      0.750668048     -0.057951498
           6
  t=        95.50000    4    1
C       0.122597209     -0.084200597     -0.223837326
N      -0.079169100      0.082346695      1.534983695
H      -0.407131151     -0.896521781     -0.755301062
H      -1.038560050      0.711701344      1.781792157
H       0.371204626     -0.728311180      1.626601406
H       0.714699947      0.771603559     -0.043516362
           6
  t=        96.00000    4    1
C       0.118486516     -0.084576017     -0.216558323
N      -0.080855792      0.087776403      1.528010946
H      -0.434990368     -0.896584935     -0.740393855
H      -1.019665487      0.630988074      1.760300739
H       0.380581776     -0.742793448      1.640342935
H       0.786668005      0.795890139     -0.040461875
           6
  t=        96.50000    4    1
C       0.114519573     -0.084244216     -0.208137719
N      -0.083462677      0.093449098      1.519868997
H      -0.461263303     -0.895222042     -0.724464276
H      -0.993030281      0.545892249      1.741082902
H       0.392136682     -0.763718074      1.662752305
H       0.858205270      0.817778690     -0.046718744
           6
  t=        97.00000    4    1
C       0.110896313     -0.083075259     -0.198741771
N      -0.086525558      0.098881051      1.510665496
H      -0.485693991     -0.891640968     -0.707203196
H      -0.963279826      0.459463504      1.724947370
H       0.404179526     -0.786457997      1.692071486
H       0.926540690      0.833974365     -0.061162908
           6
  t=        97.50000    4    1
C       0.107768965     -0.081005883     -0.188416646
N      -0.089413743      0.103567871      1.500365826
H      -0.508276838     -0.885216534     -0.688591358
H      -0.937784949      0.375113395      1.713555571
H       0.415384862     -0.806830368      1.726737322
H       0.989789338      0.842512480     -0.082881212
           6
  t=        98.00000    4    1
C       0.105257873     -0.078024897     -0.177154685
N      -0.091395589      0.107121761      1.488865844
H      -0.529225575     -0.875360103     -0.668774211
H      -0.925911696      0.295451470      1.709041903
H       0.425045228     -0.821585045      1.765212662
H       1.046639818      0.842199682     -0.110969673
           6
  t=        98.50000    4    1
C       0.103451462     -0.074161186     -0.164894525
N      -0.091903760      0.109395486      1.476063249
H      -0.548910792     -0.861476336     -0.648052195
H      -0.935170187      0.220716344      1.712961588
H       0.433040289     -0.828454152      1.805995384
H       1.096157554      0.832323773     -0.144490141
           6
  t=        99.00000    4    1
C       0.102397310     -0.069474120     -0.151510838
N      -0.090874645      0.110483354      1.461952603
H      -0.567743265     -0.843009182     -0.626891756
H      -0.966156958      0.148683952      1.724826929
H       0.439611543     -0.826026453      1.847660708
H       1.137658011      0.812538110     -0.182480420
           6
  t=        99.50000    1    1
C       0.102099835     -0.064050527     -0.136798384
N      -0.088751391      0.110576949      1.446646316
H      -0.586120055     -0.819528976     -0.605990095
H      -1.012196540      0.076637487      1.741757033
H       0.445088996     -0.813624806      1.888854625
H       1.170637430      0.782824591     -0.224014013
           6
  t=       100.00000    1    1
C       0.102149624     -0.058104524     -0.120785062
N      -0.086284982      0.110250856      1.430267950
H      -0.604969946     -0.792713913     -0.584792980
H      -1.062986615      0.001368385      1.759986625
H       0.450203146     -0.795865288      1.930670929
H       1.200301016      0.747252026     -0.268358321
