           6
  t=         0.00000    9    3
C      -0.024042087      0.002382409      0.026316464
N       0.000713955      0.007154550      1.322230157
H       1.010872764     -0.036034904     -0.450012004
H       0.890722311     -0.026633891      1.840403853
H      -0.758363872     -0.056710583      1.764972435
H      -0.866886105     -0.008395428     -0.569874537
           6
  t=         0.50000    9    3
C      -0.024773820      0.005341569      0.022410355
N       0.001184995      0.007466101      1.321237934
H       1.017964468     -0.043459066     -0.440384876
H       0.900860872     -0.037251159      1.848947191
H      -0.779326724     -0.058666013      1.779688687
H      -0.860985373     -0.027962052     -0.542466499
           6
  t=         1.00000    9    3
C      -0.024303205      0.008354849      0.015741045
N       0.002728300      0.007830325      1.322328845
H       1.019189803     -0.050408936     -0.430395666
H       0.905998898     -0.048151297      1.855448127
H      -0.812353531     -0.061242453      1.803684552
H      -0.861368354     -0.048475331     -0.518700578
           6
  t=         1.50000    9    3
C      -0.022510117      0.011454433      0.006594674
N       0.004902821      0.008220842      1.325728226
H       1.014697749     -0.056816604     -0.420582655
H       0.905674225     -0.059461093      1.859480855
H      -0.850765066     -0.063919032      1.832761015
H      -0.869703315     -0.070413957     -0.499951610
           6
  t=         2.00000    9    3
C      -0.019426584      0.014669824     -0.004722571
N       0.007281922      0.008627835      1.331529489
H       1.005144198     -0.062673550     -0.411679355
H       0.900078499     -0.071364378      1.861052466
H      -0.888705930     -0.066287632      1.863214376
H      -0.886384027     -0.094225593     -0.486733073
           6
  t=         2.50000    9    3
C      -0.015266910      0.018015782     -0.017910186
N       0.009498798      0.009063098      1.339668828
H       0.991771046     -0.068069101     -0.404563565
H       0.890109302     -0.084103834      1.860618306
H      -0.921863737     -0.068127220      1.892341151
H      -0.910214129     -0.120138917     -0.478610539
           6
  t=         3.00000    8    2
C      -0.010398397      0.021483944     -0.032691672
N       0.011240781      0.009555902      1.349969816
H       0.976403517     -0.073209896     -0.400137992
H       0.877328107     -0.097959317      1.858938838
H      -0.947365484     -0.069386019      1.918284727
H      -0.938735629     -0.148026309     -0.474426051
           6
  t=         3.50000    8    2
C      -0.005782261      0.025214863     -0.048062373
N       0.012991050      0.010100659      1.361456964
H       0.964672034     -0.078960154     -0.399170839
H       0.862420975     -0.113132580      1.858530653
H      -0.968412662     -0.070044937      1.941703786
H      -0.970331890     -0.178436816     -0.474995175
           6
  t=         4.00000    8    2
C      -0.001346421      0.029049655     -0.064217787
N       0.013868839      0.010776328      1.374627344
H       0.955818105     -0.085103830     -0.403483327
H       0.847791661     -0.130214481      1.857795164
H      -0.978920659     -0.069911358      1.959032726
H      -1.001353424     -0.210393479     -0.477911189
           6
  t=         4.50000    5    2
C       0.002512869      0.032946561     -0.080914940
N       0.013700634      0.011642792      1.389192486
H       0.951651743     -0.091996393     -0.413628282
H       0.835769815     -0.149741314      1.857821355
H      -0.978597256     -0.069078408      1.969833330
H      -1.029103101     -0.243246261     -0.482157010
           6
  t=         5.00000    5    2
C       0.005248693      0.036887393     -0.098296367
N       0.012696764      0.012591745      1.404964481
H       0.954831246     -0.099972415     -0.427166214
H       0.829034021     -0.171071741      1.859129636
H      -0.970679607     -0.067286947      1.973629226
H      -1.052090987     -0.275839675     -0.485908148
           6
  t=         5.50000    5    2
C       0.006987874      0.040798669     -0.115787333
N       0.010489954      0.013838259      1.421638527
H       0.963970390     -0.109120963     -0.446713219
H       0.828088386     -0.195845758      1.862244301
H      -0.952582683     -0.064923137      1.970737980
H      -1.068427025     -0.308171787     -0.489998617
           6
  t=         6.00000    5    2
C       0.007721116      0.044712026     -0.132928100
N       0.007195208      0.015343012      1.439143250
H       0.979157276     -0.119831477     -0.472761600
H       0.831829438     -0.223624968      1.865269414
H      -0.924432100     -0.061652346      1.960017036
H      -1.078457448     -0.340456588     -0.495379921
           6
  t=         6.50000    5    2
C       0.007541850      0.048412257     -0.150150155
N       0.003018926      0.017233246      1.457109441
H       0.996922291     -0.131200027     -0.502668419
H       0.841212886     -0.255221473      1.870104687
H      -0.890144208     -0.058486878      1.945308638
H      -1.079732265     -0.370979076     -0.500169417
           6
  t=         7.00000    5    2
C       0.006610459      0.051837449     -0.167393715
N      -0.001594567      0.019505188      1.475337565
H       1.015048883     -0.142837402     -0.535342312
H       0.854329587     -0.290197395      1.875613520
H      -0.853799901     -0.055768917      1.928713178
H      -1.072128119     -0.399434554     -0.504361655
           6
  t=         7.50000    5    2
C       0.005101297      0.054932419     -0.184620175
N      -0.006022262      0.022138524      1.493595082
H       1.031468583     -0.154332481     -0.569690760
H       0.868734663     -0.327716122      1.880528564
H      -0.821420242     -0.054037895      1.913251529
H      -1.055842947     -0.425592024     -0.508031378
           6
  t=         8.00000    5    2
C       0.003184738      0.057653051     -0.201800702
N      -0.009528116      0.025111485      1.511613741
H       1.044471137     -0.165301328     -0.604713749
H       0.881990319     -0.366714398      1.883737910
H      -0.800607591     -0.054055027      1.902574516
H      -1.031381764     -0.449309718     -0.511333641
           6
  t=         8.50000    5    2
C       0.001023766      0.059969967     -0.218906686
N      -0.011441124      0.028404854      1.529159019
H       1.052781033     -0.175411858     -0.639553761
H       0.892038808     -0.406083633      1.884426054
H      -0.798457400     -0.056661745      1.899803651
H      -0.999579701     -0.470570061     -0.514514065
           6
  t=         9.00000    5    2
C      -0.001220062      0.061873020     -0.235903082
N      -0.011425097      0.031985635      1.546146779
H       1.055545750     -0.184391703     -0.673509356
H       0.897380520     -0.444804099      1.882088005
H      -0.817999684     -0.062408023      1.905842980
H      -0.961649316     -0.489535904     -0.517921400
           6
  t=         9.50000    5    2
C      -0.003377135      0.063378917     -0.252751330
N      -0.009625080      0.035785669      1.562688643
H       1.052276878     -0.192026494     -0.706013961
H       0.897106247     -0.482017606      1.876490442
H      -0.856210507     -0.071196793      1.918786505
H      -0.919221179     -0.506628788     -0.521992966
           6
  t=        10.00000    5    2
C      -0.005266491      0.064541633     -0.269426048
N      -0.006523649      0.039702949      1.579007302
H       1.042802603     -0.198153711     -0.736595087
H       0.890829792     -0.517060276      1.867639871
H      -0.905944024     -0.082313221      1.935228890
H      -0.874332741     -0.522615285     -0.527198748
           6
  t=        10.50000    5    2
C      -0.006707682      0.065455548     -0.285917902
N      -0.002672467      0.043628734      1.595319372
H       1.027301693     -0.202654479     -0.764882677
H       0.878562441     -0.549480795      1.855735510
H      -0.959503316     -0.094788064      1.951956046
H      -0.829354509     -0.538647706     -0.534014835
           6
  t=        11.00000    5    2
C      -0.007542536      0.066245741     -0.302214949
N       0.001471545      0.047474371      1.611775472
H       1.006357840     -0.205449304     -0.790665914
H       0.860611668     -0.579043744      1.841095390
H      -1.010781830     -0.107723670      1.966690648
H      -0.786818936     -0.556196122     -0.542927694
           6
  t=        11.50000    5    2
C      -0.007663588      0.067047159     -0.318292467
N       0.005576961      0.051181075      1.628457061
H       0.980968347     -0.206501431     -0.813939058
H       0.837534987     -0.605723509      1.824092500
H      -1.055646537     -0.120407437      1.978067225
H      -0.749088460     -0.576825536     -0.554376767
           6
  t=        12.00000    5    2
C      -0.007047792      0.067973096     -0.334117910
N       0.009408667      0.054718036      1.645396360
H       0.952521072     -0.205827863     -0.834931811
H       0.810120233     -0.629697993      1.805106237
H      -1.091535330     -0.132288190      1.985366082
H      -0.717908555     -0.601813107     -0.568627270
           6
  t=        12.50000    5    2
C      -0.005779240      0.069082613     -0.349662638
N       0.012790736      0.058076782      1.662598535
H       0.922736016     -0.203513480     -0.854131020
H       0.779363328     -0.651342358      1.784479723
H      -1.116951177     -0.142912959      1.988275891
H      -0.694046504     -0.631737268     -0.585636929
           6
  t=        13.00000    5    2
C      -0.004033923      0.070369374     -0.364917332
N       0.015578023      0.061265380      1.680063974
H       0.893508523     -0.199716800     -0.872283028
H       0.746417000     -0.671219931      1.762463919
H      -1.131075317     -0.151875920      1.986749162
H      -0.677256934     -0.666318627     -0.604979233
           6
  t=        13.50000    5    2
C      -0.001989508      0.071795186     -0.379939928
N       0.017632098      0.064309712      1.697836116
H       0.866475365     -0.194620825     -0.890323630
H       0.712510330     -0.690122887      1.739057292
H      -1.133530931     -0.158829450      1.980925315
H      -0.666743709     -0.704834535     -0.625769994
           6
  t=        14.00000    4    1
C      -0.000329973      0.073557938     -0.393336559
N       0.018773445      0.066789261      1.714862641
H       0.845227631     -0.191772764     -0.911188884
H       0.680419018     -0.705520172      1.716956409
H      -1.123552319     -0.161006714      1.972248357
H      -0.659001009     -0.745549027     -0.651188959
           6
  t=        14.50000    4    1
C       0.000992153      0.075165388     -0.408145747
N       0.019255453      0.069319689      1.733555183
H       0.830489397     -0.186112203     -0.934008842
H       0.645584193     -0.722803298      1.693345798
H      -1.101249970     -0.161032050      1.959737656
H      -0.654169467     -0.788199940     -0.675638973
           6
  t=        15.00000    4    1
C       0.001705480      0.076398137     -0.422902244
N       0.019017664      0.071846226      1.752277126
H       0.823842979     -0.178684577     -0.959559926
H       0.610235881     -0.741795021      1.670977559
H      -1.068206331     -0.159484130      1.945615174
H      -0.650407557     -0.827967009     -0.698024350
           6
  t=        15.50000    1    1
C       0.001440126      0.077423858     -0.437738402
N       0.018179013      0.074357640      1.771322725
H       0.826254117     -0.172308969     -0.989299216
H       0.574887440     -0.762482301      1.649371389
H      -1.026182852     -0.156187977      1.930224672
H      -0.644681336     -0.864059563     -0.719264043
           6
  t=        16.00000    1    1
C       0.000401707      0.077908892     -0.453419683
N       0.016779129      0.076765018      1.790920859
H       0.837786869     -0.162474034     -1.022773980
H       0.537665011     -0.784964971      1.630522235
H      -0.974696587     -0.150408420      1.915616063
H      -0.638662789     -0.896416114     -0.737921620
           6
  t=        16.50000    1    1
C      -0.001187938      0.077466256     -0.468825651
N       0.015289596      0.079147998      1.810074789
H       0.855306676     -0.148935402     -1.058741150
H       0.500407361     -0.807689905      1.613596597
H      -0.922060940     -0.143851332      1.902163213
H      -0.631936479     -0.921627027     -0.754272252
           6
  t=        17.00000    1    1
C      -0.003159712      0.075955026     -0.484106615
N       0.014220272      0.081515113      1.828737389
H       0.876596135     -0.130932813     -1.095810577
H       0.463327662     -0.829654543      1.598583787
H      -0.875630577     -0.137541811      1.890722742
H      -0.624241088     -0.938870618     -0.768107507
           6
  t=        17.50000    1    1
C      -0.005276596      0.073233852     -0.499349206
N       0.014173411      0.083894932      1.846859889
H       0.899029230     -0.107667705     -1.132494320
H       0.426938125     -0.849620525      1.585405315
H      -0.844319619     -0.132781128      1.881698253
H      -0.615738735     -0.947596490     -0.779531340
           6
  t=        18.00000    1    1
C      -0.007353897      0.069328871     -0.514656579
N       0.015645001      0.086277245      1.864371905
H       0.920524925     -0.079069695     -1.167470938
H       0.391722647     -0.866641117      1.574490269
H      -0.835614568     -0.130584157      1.875476524
H      -0.606436352     -0.947976181     -0.788474861
           6
  t=        18.50000    1    1
C      -0.009238520      0.064288619     -0.530108785
N       0.018758736      0.088607041      1.881267295
H       0.939418017     -0.045300843     -1.199693279
H       0.358118762     -0.880076406      1.566136959
H      -0.851741108     -0.130922743      1.871865782
H      -0.596422071     -0.940329304     -0.795053253
           6
  t=        19.00000    1    1
C      -0.010793604      0.058206680     -0.545758979
N       0.023169933      0.090741751      1.897550603
H       0.954377190     -0.006726962     -1.228352569
H       0.326534260     -0.889536913      1.560591047
H      -0.888383062     -0.132293802      1.870612371
H      -0.585929007     -0.925315982     -0.799497547
           6
  t=        19.50000    1    1
C      -0.011891577      0.051226167     -0.561632966
N       0.028278956      0.092507732      1.913213926
H       0.964377663      0.036126434     -1.252859958
H       0.297301823     -0.894848719      1.558041100
H      -0.937598098     -0.132544563      1.871714308
H      -0.575394812     -0.904028744     -0.802166084
           6
  t=        20.00000    1    1
C      -0.012405491      0.043546521     -0.577728158
N       0.033500781      0.093769089      1.928240694
H       0.968673245      0.082613275     -1.272825686
H       0.270657288     -0.896021150      1.558618560
H      -0.991536727     -0.129863402      1.875359903
H      -0.565541615     -0.878110386     -0.803568988
           6
  t=        20.50000    1    1
C      -0.012203269      0.035431736     -0.594007877
N       0.038393482      0.094455986      1.942616946
H       0.966800993      0.131989343     -1.288065277
H       0.246731817     -0.893241983      1.562398481
H      -1.044212856     -0.123181595      1.881742530
H      -0.557456111     -0.849870618     -0.804401896
           6
  t=        21.00000    1    1
C      -0.011120368      0.027172050     -0.610259963
N       0.042671181      0.094554779      1.956280654
H       0.958212155      0.183478113     -1.298854364
H       0.225786430     -0.886818441      1.569472038
H      -1.091909844     -0.111912878      1.890802920
H      -0.552554292     -0.822078192     -0.806085378
           6
  t=        21.50000    1    1
C      -0.008999772      0.019118936     -0.626407898
N       0.046146913      0.094098466      1.969238843
H       0.942870283      0.236309077     -1.305271716
H       0.207895455     -0.877374461      1.579738561
H      -1.132101578     -0.096011405      1.902576309
H      -0.552671937     -0.798027941     -0.809483960
           6
  t=        22.00000    1    1
C      -0.005708694      0.011600473     -0.642367040
N       0.048705352      0.093156368      1.981513430
H       0.921002977      0.289752427     -1.307567253
H       0.193118584     -0.865790898      1.592973057
H      -1.163221704     -0.075670015      1.917010866
H      -0.559641404     -0.780785912     -0.815383191
           6
  t=        22.50000    1    1
C      -0.001188398      0.004843422     -0.658058483
N       0.050275110      0.091827051      1.993139513
H       0.893125878      0.343177942     -1.306178861
H       0.181511403     -0.853221321      1.608819773
H      -1.184290303     -0.051205578      1.933993689
H      -0.574721311     -0.772320963     -0.824303760
           6
  t=        23.00000    1    1
C       0.004495438     -0.001090751     -0.673419207
N       0.050811817      0.090232405      2.004163122
H       0.860060510      0.396125510     -1.301744549
H       0.173127733     -0.841071928      1.626803489
H      -1.194682231     -0.022997317      1.953368890
H      -0.598013599     -0.772812977     -0.836366459
           6
  t=        23.50000    1    1
C       0.011135891     -0.006313166     -0.688401757
N       0.050291876      0.088509522      2.014637659
H       0.822922507      0.448376133     -1.295097332
H       0.168000918     -0.830906963      1.646373294
H      -1.194022665      0.008530720      1.974942325
H      -0.628250473     -0.780636423     -0.851300234
           6
  t=        24.00000    1    1
C       0.018417743     -0.011054259     -0.702965956
N       0.048714625      0.086797280      2.024618436
H       0.783050429      0.499998580     -1.287222991
H       0.166106739     -0.824255028      1.666987494
H      -1.182180585      0.042901856      1.998476027
H      -0.663114804     -0.793040624     -0.868586552
           6
  t=        24.50000    1    1
C       0.025981827     -0.015587260     -0.717073942
N       0.046103631      0.085218872      2.034156528
H       0.741857108      0.551333376     -1.279163057
H       0.167344926     -0.822374659      1.688211700
H      -1.159272495      0.079593947      2.023695762
H      -0.699853575     -0.807043808     -0.887635730
           6
  t=        25.00000    1    1
C       0.033490315     -0.020165784     -0.730694312
N       0.042512770      0.083862706      2.043292974
H       0.700607913      0.602880590     -1.271865226
H       0.171514644     -0.825995052      1.709815881
H      -1.125729022      0.118046881      2.050301632
H      -0.735826770     -0.820065374     -0.907914272
           6
  t=        25.50000    1    1
C       0.040673467     -0.024985426     -0.743813246
N       0.038042930      0.082766684      2.052054630
H       0.660182243      0.655086486     -1.266011734
H       0.178270175     -0.835103457      1.731834290
H      -1.082489603      0.157671802      2.077982362
H      -0.768818711     -0.830173181     -0.929000617
           6
  t=        26.00000    1    1
C       0.047351376     -0.030163528     -0.756445929
N       0.032866768      0.081911036      2.060453002
H       0.620922321      0.708086664     -1.261885878
H       0.187087305     -0.848894152      1.754555038
H      -1.031321327      0.197901572      2.106446583
H      -0.797137136     -0.836069540     -0.950587256
           6
  t=        26.50000    1    1
C       0.053431834     -0.035733701     -0.768641024
N       0.027259990      0.081219595      2.068484145
H       0.582644039      0.761516301     -1.259338543
H       0.197257420     -0.865914696      1.778434987
H      -0.975255396      0.238320197      2.135497812
H      -0.819590942     -0.836967599     -0.972449465
           6
  t=        27.00000    1    1
C       0.058891142     -0.041654369     -0.780475483
N       0.021628641      0.080562243      2.076125709
H       0.544807145      0.814485059     -1.257869131
H       0.207915904     -0.884343219      1.803984684
H      -0.919001843      0.278905452      2.165170454
H      -0.835424811     -0.832463790     -0.994406004
           6
  t=        27.50000    1    1
C       0.063748503     -0.047827805     -0.792042880
N       0.016499861      0.079755188      2.083329338
H       0.506752585      0.865712270     -1.256773264
H       0.218108041     -0.902297101      1.831670436
H      -0.868890640      0.320332560      2.195907903
H      -0.844247915     -0.822445233     -1.016284886
           6
  t=        28.00000    4    1
C       0.068044437     -0.054121995     -0.803440076
N       0.012421940      0.078575565      2.090018321
H       0.467907399      0.913743812     -1.255295007
H       0.226879691     -0.918097688      1.861853778
H      -0.831573364      0.364033982      2.228634859
H      -0.845982154     -0.807044216     -1.037909137
           6
  t=        28.50000    4    1
C       0.071900675     -0.060387346     -0.814835235
N       0.009739171      0.076856444      2.096024860
H       0.427980869      0.957166089     -1.252147982
H       0.233307003     -0.930379856      1.894819314
H      -0.811317532      0.410960859      2.264940500
H      -0.841378630     -0.786625223     -1.058105173
           6
  t=        29.00000    4    1
C       0.075301973     -0.066470626     -0.826221044
N       0.008479959      0.074493520      2.101391769
H       0.386763415      0.994720941     -1.247352105
H       0.236804794     -0.938468739      1.930645704
H      -0.807568396      0.461940421      2.304945892
H      -0.830410463     -0.761807434     -1.077734736
           6
  t=        29.50000    4    1
C       0.078319130     -0.072213831     -0.837651056
N       0.008325454      0.071593894      2.106150519
H       0.344340830      1.025403523     -1.240463395
H       0.236956609     -0.942157359      1.969385028
H      -0.815531236      0.515308537      2.348274044
H      -0.813954506     -0.733498295     -1.096716554
           6
  t=        30.00000    4    1
C       0.081046481     -0.077452953     -0.849157697
N       0.008829590      0.068393573      2.110389168
H       0.300980705      1.048478613     -1.231155001
H       0.233597679     -0.941759944      2.011054174
H      -0.828912245      0.568133783      2.393765489
H      -0.793332793     -0.702948883     -1.115072289
           6
  t=        30.50000    4    1
C       0.083610639     -0.082015253     -0.860749225
N       0.009589348      0.065168433      2.114211729
H       0.257096360      1.063488063     -1.219204994
H       0.226788667     -0.938038584      2.055667069
H      -0.842250396      0.617380271      2.440018630
H      -0.770388245     -0.671792979     -1.132983061
           6
  t=        31.00000    4    1
C       0.086172612     -0.085720650     -0.872405975
N       0.010306472      0.062175682      2.117709527
H       0.213217913      1.070254942     -1.204493225
H       0.216763448     -0.932093948      2.103262203
H      -0.851711999      0.660610998      2.485769494
H      -0.747491545     -0.642033905     -1.150846606
           6
  t=        31.50000    4    1
C       0.088916592     -0.088394242     -0.884080824
N       0.010780987      0.059631114      2.120950964
H       0.169963089      1.068901528     -1.186999195
H       0.203863547     -0.925207362      2.153929465
H      -0.854927145      0.696145055      2.530016458
H      -0.727386470     -0.615912585     -1.169283176
           6
  t=        32.00000    4    1
C       0.092018032     -0.089894330     -0.895708621
N       0.010885640      0.057699853      2.123982801
H       0.128003398      1.059889602     -1.166797319
H       0.188471425     -0.918610045      2.207819040
H      -0.850565824      0.722955431      2.572001400
H      -0.712778019     -0.595613992     -1.189035874
           6
  t=        32.50000    4    1
C       0.095592525     -0.090152877     -0.907226058
N       0.010543428      0.056486259      2.126837922
H       0.088020615      1.044081934     -1.144047799
H       0.170954014     -0.913194923      2.265101665
H      -0.837970975      0.740521163      2.611145477
H      -0.705678347     -0.582847154     -1.210747069
           6
  t=        33.00000    4    1
C       0.099646190     -0.089214105     -0.918595583
N       0.009712608      0.056022624      2.129547532
H       0.050649762      1.022816002     -1.118982753
H       0.151630515     -0.909248059      2.325861347
H      -0.816920538      0.748716059      2.646987322
H      -0.706756648     -0.578459420     -1.234687988
           6
  t=        33.50000    4    1
C       0.104059925     -0.087251798     -0.929820594
N       0.008377242      0.056263964      2.132154850
H       0.016406200      0.997965745     -1.091882034
H       0.130778460     -0.906317971      2.389941454
H      -0.787503269      0.747750215      2.679144793
H      -0.715077463     -0.582292075     -1.260600073
           6
  t=        34.00000    4    1
C       0.108622742     -0.084555356     -0.940943449
N       0.006541404      0.057094787      2.134725107
H      -0.014396584      0.971949033     -1.063032261
H       0.108676851     -0.903305196      2.456806110
H      -0.750081769      0.738165117      2.707311823
H      -0.728415102     -0.593353401     -1.287756739
           6
  t=        34.50000    4    1
C       0.113094254     -0.081489775     -0.952031596
N       0.004227202      0.058346394      2.137346033
H      -0.041716813      0.947608917     -1.032661991
H       0.085662241     -0.898750919      2.525485933
H      -0.705321016      0.720881091      2.731303153
H      -0.743927830     -0.610175717     -1.315190630
           6
  t=        35.00000    4    1
C       0.117260557     -0.078439697     -0.963163634
N       0.001477534      0.059816447      2.140115851
H      -0.065801118      0.927890039     -1.000862365
H       0.062165885     -0.891206594      2.594634896
H      -0.654263685      0.697294276      2.751161907
H      -0.758806735     -0.631157092     -1.341936608
           6
  t=        35.50000    4    1
C       0.120960765     -0.075744894     -0.974420589
N      -0.001636545      0.061281671      2.143119811
H      -0.087103160      0.915291240     -0.967534688
H       0.038713309     -0.879552665      2.662670515
H      -0.598431977      0.669418074      2.767344039
H      -0.770673084     -0.654781472     -1.367186534
           6
  t=        36.00000    4    1
C       0.124083555     -0.073638562     -0.985878363
N      -0.005007623      0.062500801      2.146399402
H      -0.106100031      0.911230370     -0.932425585
H       0.015887512     -0.863191229      2.727945341
H      -0.539904810      0.640034469      2.780973773
H      -0.777720785     -0.679717730     -1.390343313
           6
  t=        36.50000    4    1
C       0.126548313     -0.072209418     -0.997595981
N      -0.008491537      0.063214466      2.149923536
H      -0.123081894      0.915616686     -0.895275992
H      -0.005733239     -0.842102722      2.788905515
H      -0.481260999      0.612752215      2.794085256
H      -0.778702336     -0.704843329     -1.411011516
           6
  t=        37.00000    4    1
C       0.128288996     -0.071405693     -1.009601803
N      -0.011928110      0.063158390      2.153581283
H      -0.138035756      0.926889317     -0.856019886
H      -0.025646441     -0.816792876      2.844212869
H      -0.425220075      0.591770685      2.809601528
H      -0.772852884     -0.729235514     -1.428963083
           6
  t=        37.50000    4    1
C       0.129250462     -0.071077025     -1.021885245
N      -0.015190021      0.062108236      2.157224514
H      -0.150683250      0.942500954     -0.814917503
H      -0.043487885     -0.788168079      2.892821814
H      -0.373901147      0.581132715      2.830665687
H      -0.759808383     -0.752156711     -1.444103134
           6
  t=        38.00000    4    1
C       0.129395102     -0.071029362     -1.034398493
N      -0.018238282      0.059951891      2.160765787
H      -0.160621725      0.959564383     -0.772558702
H      -0.059070366     -0.757376039      2.934011178
H      -0.328014258      0.583561479      2.859249726
H      -0.739542527     -0.773048014     -1.456446995
           6
  t=        38.50000    4    1
C       0.128712174     -0.071068045     -1.047065464
N      -0.021135454      0.056742405      2.164270246
H      -0.167471774      0.975373481     -0.729765977
H      -0.072389251     -0.725643042      2.967377318
H      -0.286672438      0.599562664      2.894885297
H      -0.712329193     -0.791537524     -1.466111233
           6
  t=        39.00000    4    1
C       0.127224541     -0.071019177     -1.059792162
N      -0.023997757      0.052681416      2.167955783
H      -0.170971052      0.987684249     -0.687468134
H      -0.083595827     -0.694138893      2.992799124
H      -0.248084896      0.627519475      2.934697125
H      -0.678727666     -0.807466852     -1.473317316
           6
  t=        39.50000    4    1
C       0.124991567     -0.070732456     -1.072474415
N      -0.026930475      0.048046438      2.172104066
H      -0.171008083      0.994793838     -0.646595591
H      -0.092951496     -0.663901121      3.010395754
H      -0.210501244      0.664626633      2.974682121
H      -0.639582392     -0.820935858     -1.478404833
           6
  t=        40.00000    4    1
C       0.122108839     -0.070073477     -1.085002250
N      -0.029993824      0.043119648      2.176963444
H      -0.167617671      0.995507207     -0.608011295
H      -0.100783588     -0.635826127      3.020510906
H      -0.172730818      0.707870762      3.011074238
H      -0.596023376     -0.832360707     -1.481848601
           6
  t=        40.50000    4    1
C       0.118704680     -0.068913160     -1.097262238
N      -0.033201796      0.038151874      2.182693887
H      -0.160960510      0.989064900     -0.572470656
H      -0.107457633     -0.610704113      3.023762868
H      -0.134187406      0.754566371      3.041057967
H      -0.549444098     -0.842528275     -1.484269210
           6
  t=        41.00000    4    1
C       0.114931805     -0.067120665     -1.109140853
N      -0.036534794      0.033358783      2.189350517
H      -0.151300271      0.975073495     -0.540595560
H      -0.113365226     -0.589279375      3.021165623
H      -0.094726427      0.802470691      3.062874110
H      -0.501424519     -0.852612530     -1.486417191
           6
  t=        41.50000    4    1
C       0.110952471     -0.064566285     -1.120531310
N      -0.039952888      0.028933225      2.196894053
H      -0.138985716      0.953460753     -0.512852109
H      -0.118913849     -0.572344443      3.014220548
H      -0.054470044      0.849708427      3.075583156
H      -0.453573006     -0.864097326     -1.489114008
           6
  t=        42.00000    4    1
C       0.106917068     -0.061139352     -1.131346462
N      -0.043404794      0.025057817      2.205215895
H      -0.124438036      0.924460743     -0.489520160
H      -0.124517199     -0.560814525      3.004880727
H      -0.013690343      0.894672227      3.078755269
H      -0.407285818     -0.878549203     -1.493131752
           6
  t=        42.50000    4    1
C       0.102941393     -0.056781201     -1.141536722
N      -0.046833051      0.021907942      2.214165195
H      -0.108140586      0.888627616     -0.470646922
H      -0.130582629     -0.555689136      2.995380644
H       0.027251058      0.935942371      3.072267769
H      -0.363487768     -0.897238457     -1.499029515
           6
  t=        43.00000    4    1
C       0.099092364     -0.051522223     -1.151110254
N      -0.050178059      0.019643658      2.223579072
H      -0.090630065      0.846864623     -0.455970985
H      -0.137483883     -0.557877466      2.987923448
H       0.067931270      0.972223582      3.056202314
H      -0.322470431     -0.920725888     -1.506993175
           6
  t=        43.50000    4    1
C       0.095390210     -0.045506169     -1.160146814
N      -0.053382634      0.018392423      2.233319012
H      -0.072484372      0.800459732     -0.444825348
H      -0.145512764     -0.567914840      2.984234277
H       0.107879037      1.002300942      3.030789246
H      -0.283928223     -0.948608555     -1.516771017
           6
  t=        44.00000    4    1
C       0.091824425     -0.038986055     -1.168802546
N      -0.056397712      0.018224497      2.243301721
H      -0.054293420      0.751095391     -0.436018472
H      -0.154814847     -0.585623266      2.985121874
H       0.146585806      1.025043743      2.996417651
H      -0.247173734     -0.979579814     -1.527735922
           6
  t=        44.50000    4    1
C       0.088371532     -0.032290944     -1.177302937
N      -0.059187527      0.019136051      2.253509827
H      -0.036604085      0.700777904     -0.427758352
H      -0.165338522     -0.609911496      2.990291725
H       0.183522520      1.039441033      2.953671829
H      -0.211400068     -1.011754927     -1.539043450
           6
  t=        45.00000    4    1
C       0.085004283     -0.025774573     -1.185919241
N      -0.061731875      0.021051505      2.263975264
H      -0.019831690      0.651637448     -0.417731872
H      -0.176831656     -0.638865453      2.998550492
H       0.218165807      1.044658013      2.903350350
H      -0.175876911     -1.043081354     -1.549825894
           6
  t=        45.50000    4    1
C       0.081693151     -0.019757962     -1.194925351
N      -0.064025538      0.023840831      2.274744648
H      -0.004180728      0.605562083     -0.403451024
H      -0.188885684     -0.670072238      3.008256145
H       0.250035866      1.040117485      2.846488420
H      -0.140049476     -1.071653864     -1.559350933
           6
  t=        46.00000    4    1
C       0.078405482     -0.014477028     -1.204536688
N      -0.066077420      0.027338395      2.285844694
H       0.010391290      0.563748237     -0.382881615
H      -0.201003344     -0.701007244      3.017765785
H       0.278757067      1.025623818      2.784384940
H      -0.103569381     -1.095887459     -1.567114949
           6
  t=        46.50000    4    1
C       0.075108012     -0.010051320     -1.214848857
N      -0.067912960      0.031350733      2.297259676
H       0.024130664      0.526387350     -0.355146772
H      -0.212660165     -0.729332936      3.025716001
H       0.304158460      1.001553776      2.718634848
H      -0.066286905     -1.114576360     -1.572869528
           6
  t=        47.00000    4    1
C       0.071773731     -0.006488963     -1.225806289
N      -0.069582632      0.035649155      2.308923353
H       0.037372244      0.492720692     -0.320923649
H      -0.223345850     -0.753067285      3.031123887
H       0.326437504      0.969128252      2.651144054
H      -0.028221746     -1.126890559     -1.576601763
           6
  t=        47.50000    4    1
C       0.068389961     -0.003723358     -1.237220657
N      -0.071177463      0.039950949      2.320723763
H       0.050401725      0.461452856     -0.282268278
H      -0.232586715     -0.770649746      3.033376671
H       0.346400774      0.930739624      2.584077870
H       0.010475869     -1.132352388     -1.578494925
           6
  t=        48.00000    4    1
C       0.064962903     -0.001657593     -1.248825885
N      -0.072847848      0.043904598      2.332521745
H       0.063360253      0.431259217     -0.242006371
H      -0.239957210     -0.780963583      3.032183588
H       0.365738196      0.890178405      2.519656077
H       0.049565092     -1.130814351     -1.578886880
           6
  t=        48.50000    4    1
C       0.061515193     -0.000193706     -1.260337680
N      -0.074810017      0.047110350      2.344184665
H       0.076227013      0.401127228     -0.203062331
H      -0.245094125     -0.783364519      3.027540106
H       0.387127151      0.852374399      2.459723468
H       0.088761041     -1.122450066     -1.578235625
           6
  t=        49.00000    4    1
C       0.058080950      0.000758341     -1.271493933
N      -0.077311385      0.049213389      2.355624575
H       0.088842075      0.370469015     -0.168003232
H      -0.247719971     -0.777746159      3.019734849
H       0.413773510      0.822165957      2.405214719
H       0.127771673     -1.107758551     -1.577096328
           6
  t=        49.50000    4    1
C       0.054698506      0.001284912     -1.282072167
N      -0.080538817      0.050059389      2.366807351
H       0.100952157      0.339081375     -0.138846589
H      -0.247677671     -0.764655768      3.009415059
H       0.448169745      0.802253843      2.355963218
H       0.166340669     -1.087574150     -1.576106932
           6
  t=        50.00000    4    1
C       0.051403447      0.001477106     -1.291891467
N      -0.084517744      0.049806342      2.377706303
H       0.112251862      0.307048468     -0.117046940
H      -0.244970502     -0.745445310      2.997705785
H       0.490730358      0.791798751      2.311226522
H       0.204291891     -1.063069655     -1.575978842
           6
  t=        50.50000    4    1
C       0.048222726      0.001436700     -1.300807656
N      -0.089091803      0.048887696      2.388232788
H       0.122413639      0.274646008     -0.103563261
H      -0.239788622     -0.722409594      2.986345353
H       0.539532091      0.787071505      2.270514997
H       0.241572747     -1.035731130     -1.577486759
           6
  t=        51.00000    4    1
C       0.045170442      0.001275358     -1.308707805
N      -0.093996879      0.047869975      2.398205381
H       0.131108459      0.242269256     -0.098942926
H      -0.232491284     -0.698802455      2.977746085
H       0.591321286      0.783446084      2.233960217
H       0.278287649     -1.007274991     -1.581451109
           6
  t=        51.50000    4    1
C       0.042246650      0.001104625     -1.315507846
N      -0.098957741      0.047316057      2.407375978
H       0.138020134      0.210385442     -0.103388457
H      -0.223506562     -0.678534102      2.974816426
H       0.642751716      0.776994054      2.202132907
H       0.314702242     -0.979478847     -1.588702269
           6
  t=        52.00000    4    1
C       0.039440708      0.001016888     -1.321155226
N      -0.103753050      0.047684500      2.415496620
H       0.142857638      0.179503262     -0.116789041
H      -0.213137374     -0.665334762      2.980365176
H       0.691089297      0.765045426      2.175713392
H       0.351195925     -0.953922532     -1.600020647
           6
  t=        52.50000    4    1
C       0.036739732      0.001061816     -1.325637466
N      -0.108242712      0.049245663      2.422405739
H       0.145368696      0.150150584     -0.138704193
H      -0.201355755     -0.661488918      2.996128395
H       0.734382173      0.746089036      2.155267162
H       0.388151745     -0.931686162     -1.616052014
           6
  t=        53.00000    4    1
C       0.034140067      0.001227364     -1.328996052
N      -0.112363427      0.052032671      2.428094215
H       0.145356551      0.122854120     -0.168289543
H      -0.187768468     -0.666854836      3.021940528
H       0.771362769      0.719477197      2.141151831
H       0.425804809     -0.913107307     -1.637212118
           6
  t=        53.50000    4    1
C       0.031656793      0.001435072     -1.331343742
N      -0.116100746      0.055869937      2.432707660
H       0.142701757      0.098116642     -0.204163671
H      -0.171838733     -0.678987134      3.055712600
H       0.801282692      0.685156982      2.133500012
H       0.464105876     -0.897707319     -1.663606607
           6
  t=        54.00000    4    1
C       0.029326083      0.001553581     -1.332882233
N      -0.119456282      0.060467252      2.436487165
H       0.137388533      0.076389121     -0.244227512
H      -0.153200793     -0.694256241      3.094234829
H       0.823775998      0.643486895      2.132232815
H       0.502662590     -0.884328947     -1.694994092
           6
  t=        54.50000    4    1
C       0.027199037      0.001425450     -1.333915302
N      -0.122428910      0.065515266      2.439697334
H       0.129529397      0.058036009     -0.285482391
H      -0.131844308     -0.709067995      3.134156108
H       0.838787951      0.595132735      2.137074978
H       0.540782773     -0.871423701     -1.730806370
           6
  t=        55.00000    4    1
C       0.025331086      0.000896968     -1.334848611
N      -0.125013475      0.070738846      2.442580734
H       0.119370828      0.043293312     -0.323965852
H      -0.108124906     -0.720554042      3.172610732
H       0.846572658      0.541017377      2.147559561
H       0.577589844     -0.857365858     -1.770213420
           6
  t=        55.50000    4    1
C       0.023773780     -0.000157749     -1.336159514
N      -0.127211007      0.075910575      2.445343282
H       0.107251810      0.032228705     -0.355022257
H      -0.082684050     -0.726738776      3.207434328
H       0.847758763      0.482299520      2.163016401
H       0.612158123     -0.840698714     -1.812213640
           6
  t=        56.00000    4    1
C       0.022573986     -0.001822978     -1.338318896
N      -0.129043026      0.080844763      2.448157430
H       0.093498387      0.024720902     -0.374143724
H      -0.056360463     -0.726436458      3.237143510
H       0.843462031      0.420352446      2.182551239
H       0.643625529     -0.820276436     -1.855726636
           6
  t=        56.50000    4    1
C       0.021778499     -0.004138259     -1.341670515
N      -0.130564722      0.085388962      2.451170259
H       0.078293182      0.020475930     -0.378327421
H      -0.030124157     -0.719081980      3.260841557
H       0.835403576      0.356710744      2.205030767
H       0.671267965     -0.795315841     -1.899675749
           6
  t=        57.00000    4    1
C       0.021434958     -0.007102887     -1.346323551
N      -0.131870893      0.089421743      2.454508506
H       0.061624957      0.019075153     -0.367290702
H      -0.005031638     -0.704585392      3.278133136
H       0.825947826      0.292954223      2.229100080
H       0.694538677     -0.765389224     -1.943054303
           6
  t=        57.50000    4    1
C       0.021582490     -0.010683399     -1.352134385
N      -0.133086144      0.092858664      2.458276484
H       0.043385558      0.020027313     -0.343639557
H       0.017811145     -0.683230411      3.289073720
H       0.817928696      0.230522060      2.253262416
H       0.713083297     -0.730386000     -1.984974450
           6
  t=        58.00000    4    1
C       0.022237628     -0.014821018     -1.358790163
N      -0.134332563      0.095662046      2.462546412
H       0.023536680      0.022807904     -0.311837706
H       0.037292354     -0.655608519      3.294151612
H       0.814155784      0.170510307      2.276030374
H       0.726741817     -0.690462541     -2.024701893
           6
  t=        58.50000    4    1
C       0.023386055     -0.019438753     -1.365926830
N      -0.135681392      0.097845464      2.467345222
H       0.002213345      0.026892267     -0.276774671
H       0.052354672     -0.622577158      3.294289779
H       0.816680852      0.113567273      2.296104803
H       0.735545124     -0.645990375     -2.061679875
           6
  t=        59.00000    4    1
C       0.024983266     -0.024448039     -1.373212719
N      -0.137113646      0.099465972      2.472644096
H      -0.020278924      0.031786721     -0.242746731
H       0.062073924     -0.585230428      3.290859194
H       0.826169739      0.059972546      2.312504611
H       0.739712156     -0.597508583     -2.095550695
           6
  t=        59.50000    4    1
C       0.026959988     -0.029754729     -1.380380855
N      -0.138518613      0.100608623      2.478354960
H      -0.043522540      0.037052626     -0.213054027
H       0.065752304     -0.544882644      3.285696786
H       0.841785929      0.009836591      2.324596268
H       0.739646192     -0.545677416     -2.126172708
           6
  t=        60.00000    4    1
C       0.029228237     -0.035264273     -1.387227103
N      -0.139732063      0.101374398      2.484332109
H      -0.067050165      0.042318403     -0.190011186
H       0.063012608     -0.503056273      3.281120045
H       0.861625175     -0.036742093      2.332057091
H       0.735927091     -0.491230181     -2.153632209
           6
  t=        60.50000    4    1
C       0.031686767     -0.040886589     -1.393595488
N      -0.140587118      0.101875059      2.490377229
H      -0.090388901      0.047281023     -0.175125401
H       0.053865344     -0.461439642      3.279898167
H       0.883354294     -0.079646002      2.334837185
H       0.729291487     -0.434918471     -2.178243028
           6
  t=        61.00000    4    1
C       0.034226807     -0.046541223     -1.399364064
N      -0.140948216      0.102225954      2.496253411
H      -0.113087013      0.051702249     -0.169293718
H       0.038698097     -0.421741274      3.285075857
H       0.904693970     -0.118782747      2.333145253
H       0.720590955     -0.377448577     -2.200521834
           6
  t=        61.50000    4    1
C       0.036739275     -0.052163178     -1.404437637
N      -0.140716403      0.102525218      2.501720047
H      -0.134729171      0.055406141     -0.172958492
H       0.018133719     -0.385367810      3.299505057
H       0.923634919     -0.154117064      2.327437228
H       0.710720494     -0.319410589     -2.221124502
           6
  t=        62.00000    4    1
C       0.039124508     -0.057707923     -1.408749007
N      -0.139815025      0.102820814      2.506592618
H      -0.154949867      0.058277992     -0.186205717
H      -0.007205338     -0.352975819      3.325049044
H       0.938475965     -0.185661189      2.318386212
H       0.700514965     -0.261217628     -2.240737796
           6
  t=        62.50000    4    1
C       0.041303465     -0.063154423     -1.412268099
N      -0.138176566      0.103086488      2.510805549
H      -0.173448815      0.060268816     -0.208802948
H      -0.036861315     -0.324166463      3.361761288
H       0.947806511     -0.213447352      2.306833147
H       0.690629922     -0.203073036     -2.259935533
           6
  t=        63.00000    4    1
C       0.043228900     -0.068504383     -1.415015968
N      -0.135746626      0.103230114      2.514436718
H      -0.190017299      0.061404325     -0.240180829
H      -0.070481625     -0.297620164      3.407603421
H       0.950503184     -0.237510799      2.293729138
H       0.681434167     -0.144986468     -2.279031190
           6
  t=        63.50000    4    1
C       0.044893372     -0.073777442     -1.417079952
N      -0.132501382      0.103132464      2.517673476
H      -0.204578049      0.061798112     -0.279353174
H      -0.107601531     -0.271632144      3.458976267
H       0.945755536     -0.257894637      2.280075307
H       0.672953694     -0.086842802     -2.297976082
           6
  t=        64.00000    4    1
C       0.046332885     -0.079004528     -1.418626479
N      -0.128461728      0.102690200      2.520745659
H      -0.217245010      0.061672977     -0.324780888
H      -0.147485725     -0.244687687      3.511709256
H       0.933104281     -0.274672883      2.266861539
H       0.664888073     -0.028501434     -2.316340428
           6
  t=        64.50000    4    1
C       0.047627271     -0.084223020     -1.419909465
N      -0.123695929      0.101840849      2.523867766
H      -0.228407578      0.061395184     -0.374195975
H      -0.189135715     -0.215775126      3.561918982
H       0.912485657     -0.287985185      2.255008063
H       0.656689928      0.030112421     -2.333386013
           6
  t=        65.00000    4    1
C       0.048897569     -0.089472206     -1.421271892
N      -0.118316387      0.100568960      2.527211505
H      -0.238822647      0.061496621     -0.424445758
H      -0.231401196     -0.184422088      3.606448995
H       0.884298329     -0.298086084      2.245303645
H       0.647687721      0.088931514     -2.348199809
           6
  t=        65.50000    4    1
C       0.050302966     -0.094794479     -1.423130830
N      -0.112477378      0.098903452      2.530904082
H      -0.249688831      0.062700968     -0.471516250
H      -0.273105318     -0.150587165      3.642955651
H       0.849497384     -0.305416403      2.238341000
H       0.637196278      0.147734572     -2.359846307
           6
  t=        66.00000    4    1
C       0.052026826     -0.100231251     -1.425930970
N      -0.106378846      0.096915009      2.535041461
H      -0.262583066      0.065869774     -0.510955018
H      -0.313129079     -0.114522651      3.669806487
H       0.809731216     -0.310704226      2.234432260
H       0.624619976      0.206151358     -2.367496120
           6
  t=        66.50000    4    1
C       0.054247277     -0.105813331     -1.430052096
N      -0.100273987      0.094716982      2.539706403
H      -0.279168843      0.071845713     -0.538875881
H      -0.350457692     -0.076661116      3.685932218
H       0.767492717     -0.315091372      2.233505514
H       0.609511668      0.263705506     -2.370522115
           6
  t=        67.00000    4    1
C       0.057089237     -0.111540045     -1.435693191
N      -0.094472785      0.092468310      2.544984310
H      -0.300656270      0.081158943     -0.553284429
H      -0.384200715     -0.037539823      3.690702749
H       0.726188044     -0.320250054      2.235007717
H       0.591604499      0.319859950     -2.368552925
           6
  t=        67.50000    4    1
C       0.060579045     -0.117358219     -1.442801716
N      -0.089325431      0.090370311      2.550968172
H      -0.327271943      0.093733827     -0.554906459
H      -0.413605449      0.002244352      3.683861800
H       0.689919352     -0.328383244      2.237901417
H       0.570822284      0.374059864     -2.361486608
           6
  t=        68.00000    4    1
C       0.064634966     -0.123159747     -1.451104682
N      -0.085165682      0.088643005      2.557741232
H      -0.358134616      0.108817481     -0.546829840
H      -0.438079233      0.042063691      3.665529517
H       0.662719906     -0.341924298      2.240903926
H       0.547268399      0.425774981     -2.349479809
           6
  t=        68.50000    4    1
C       0.069098491     -0.128801512     -1.460216807
N      -0.082214814      0.087472819      2.565331427
H      -0.391606087      0.125180087     -0.533248346
H      -0.457234514      0.081283373      3.636287933
H       0.647264819     -0.362833658      2.243036842
H       0.521203801      0.474536002     -2.332918025
           6
  t=        69.00000    4    1
C       0.073780767     -0.134134396     -1.469748203
N      -0.080493033      0.086949583      2.573654507
H      -0.425815364      0.141427539     -0.518219105
H      -0.470973014      0.119295960      3.597359586
H       0.643724532     -0.391757513      2.244239542
H       0.493018147      0.519967019     -2.312377784
           6
  t=        69.50000    4    1
C       0.078497956     -0.139026025     -1.479364777
N      -0.079804323      0.087035565      2.582480587
H      -0.459047846      0.156245131     -0.504985242
H      -0.479627958      0.155586912      3.550886353
H       0.649696834     -0.427662456      2.245556309
H       0.463197707      0.561811996     -2.288586005
           6
  t=        70.00000    4    1
C       0.083088413     -0.143371944     -1.488804259
N      -0.079799429      0.087586518      2.591437750
H      -0.489916833      0.168513893     -0.495827997
H      -0.484176200      0.189856111      3.500284655
H       0.661294020     -0.468248788      2.248731409
H       0.432292346      0.599950798     -2.262377406
           6
  t=        70.50000    4    1
C       0.087417040     -0.147097572     -1.497869334
N      -0.080054873      0.088395455      2.600035778
H      -0.517383310      0.177331461     -0.492192328
H      -0.486478905      0.222211203      3.450533648
H       0.674481241     -0.510751336      2.255590962
H       0.400883682      0.634400890     -2.234650404
           6
  t=        71.00000    4    1
C       0.091373837     -0.150154919     -1.506414728
N      -0.080127333      0.089224270      2.607709818
H      -0.540709380      0.181987185     -0.494885118
H      -0.489357954      0.253376552      3.407991193
H       0.685908198     -0.552587174      2.267619690
H       0.369556113      0.665302572     -2.206322229
           6
  t=        71.50000    4    1
C       0.094871002     -0.152517034     -1.514336037
N      -0.079607439      0.089826705      2.613923736
H      -0.559399371      0.181925566     -0.504250635
H      -0.496105140      0.284686980      3.379102750
H       0.693165397     -0.591668203      2.285815186
H       0.338872725      0.692889093     -2.178285527
           6
  t=        72.00000    4    1
C       0.097840546     -0.154172001     -1.521562499
N      -0.078210230      0.089993432      2.618347074
H      -0.573153474      0.176714966     -0.520294454
H      -0.509167606      0.317536381      3.367919341
H       0.694726293     -0.626475970      2.310710296
H       0.309357624      0.717446351     -2.151369653
           6
  t=        72.50000    4    1
C       0.100233170     -0.155117681     -1.528053567
N      -0.075866160      0.089619236      2.620996824
H      -0.581843599      0.166028522     -0.542754419
H      -0.528730684      0.352416443      3.374044097
H       0.689794427     -0.656034183      2.342456041
H       0.281485165      0.739269657     -2.126309778
           6
  t=        73.00000    4    1
C       0.102018865     -0.155358114     -1.533798802
N      -0.072719088      0.088734682      2.622196659
H      -0.585515930      0.149639549     -0.571123544
H      -0.552596830      0.388424881      3.393109207
H       0.678155006     -0.679857421      2.380911298
H       0.255674959      0.758625978     -2.103725503
           6
  t=        73.50000    4    1
C       0.103189818     -0.154902140     -1.538820844
N      -0.069027423      0.087470330      2.622394109
H      -0.584424471      0.127431424     -0.604627898
H      -0.577446571      0.423721872      3.419238865
H       0.660062943     -0.697911349      2.425720843
H       0.232290064      0.775728622     -2.084108280
           6
  t=        74.00000    4    1
C       0.103766335     -0.153764364     -1.543181585
N      -0.065063218      0.085997890      2.622003363
H      -0.579100385      0.099419246     -0.642160519
H      -0.600168887      0.456333531      3.447168535
H       0.636172047     -0.710599295      2.476381012
H       0.211635014      0.790727839     -2.067814809
           6
  t=        74.50000    4    1
C       0.103806207     -0.151967685     -1.546991331
N      -0.061064999      0.084494088      2.621344004
H      -0.570458711      0.065774824     -0.682176871
H      -0.618471052      0.484660729      3.473034206
H       0.607489814     -0.718769638      2.532301997
H       0.193950707      0.803716461     -2.055062823
           6
  t=        75.00000    4    1
C       0.103416405     -0.149545375     -1.550418997
N      -0.057231077      0.083129874      2.620642106
H      -0.559927827      0.026835242     -0.722577708
H      -0.630916093      0.507623494      3.494286824
H       0.575321894     -0.723710369      2.592878384
H       0.179404617      0.814746289     -2.045927035
           6
  t=        75.50000    4    1
C       0.102762133     -0.146539353     -1.553696924
N      -0.053723663      0.082067004      2.620049689
H      -0.549543475     -0.016939943     -0.760654502
H      -0.636748802      0.524624024      3.509343055
H       0.541154991     -0.727064483      2.657568279
H       0.168077320      0.823850190     -2.040336470
           6
  t=        76.00000    4    1
C       0.102061642     -0.142991389     -1.557107098
N      -0.050666062      0.081445965      2.619663432
H      -0.541873309     -0.065098374     -0.793249762
H      -0.635714713      0.535470599      3.517269608
H       0.506436484     -0.730585737      2.725949397
H       0.159949182      0.831066694     -2.038078817
           6
  t=        76.50000    4    1
C       0.101550561     -0.138929033     -1.560932266
N      -0.048129985      0.081359333      2.619542021
H      -0.539584686     -0.117389774     -0.817319905
H      -0.627935682      0.540321169      3.517578835
H       0.472273297     -0.735711747      2.797683106
H       0.154893315      0.836466895     -2.038820141
           6
  t=        77.00000    4    1
C       0.101410766     -0.134359088     -1.565371117
N      -0.046122122      0.081819416      2.619726127
H      -0.544602616     -0.173872981     -0.830905391
H      -0.613845875      0.539659580      3.510132707
H       0.439180981     -0.743090201      2.872333485
H       0.152680689      0.840183477     -2.042145368
           6
  t=        77.50000    4    1
C       0.101694660     -0.129285805     -1.570456717
N      -0.044583235      0.082740506      2.620257718
H      -0.557227135     -0.234725521     -0.834045967
H      -0.594177377      0.534302019      3.495138183
H       0.407056524     -0.752338525      2.949103978
H       0.152999430      0.842436701     -2.047614585
           6
  t=        78.00000    4    1
C       0.102301817     -0.123749657     -1.576040509
N      -0.043403431      0.083949832      2.621186231
H      -0.575885033     -0.299794172     -0.828915056
H      -0.569985841      0.525429787      3.473223227
H       0.375416161     -0.762228721      3.026675966
H       0.155484619      0.843546449     -2.054819432
           6
  t=        78.50000    4    1
C       0.103029155     -0.117854359     -1.581858118
N      -0.042442568      0.085219380      2.622551725
H      -0.597759261     -0.368259916     -0.818998569
H      -0.542710018      0.514645724      3.445590664
H       0.343738414     -0.771185797      3.103288959
H       0.159750290      0.843918941     -2.063420803
           6
  t=        79.00000    4    1
C       0.103651573     -0.111759340     -1.587623982
N      -0.041541869      0.086296198      2.624350089
H      -0.619778315     -0.438689148     -0.807955500
H      -0.514251023      0.504049609      3.414230917
H       0.311705111     -0.777784349      3.177011346
H       0.165418373      0.844008246     -2.073161547
           6
  t=        79.50000    4    1
C       0.103980506     -0.105648666     -1.593097524
N      -0.040524787      0.086917785      2.626498023
H      -0.639332855     -0.509345445     -0.798842272
H      -0.487022405      0.496299170      3.382111351
H       0.279263920     -0.781023480      3.246037268
H       0.172137625      0.844258254     -2.083853813
           6
  t=        80.00000    4    1
C       0.103885108     -0.099699520     -1.598107066
N      -0.039199789      0.086818564      2.628823651
H      -0.654537729     -0.578500866     -0.793856563
H      -0.463847249      0.494555257      3.353110081
H       0.246564587     -0.780362313      3.308882587
H       0.179592959      0.845039017     -2.095349985
           6
  t=        80.50000    4    1
C       0.103288751     -0.094062103     -1.602546574
N      -0.037385468      0.085748971      2.631112313
H      -0.664190938     -0.644618543     -0.794409925
H      -0.447505873      0.502110881      3.331313708
H       0.213856139     -0.775614567      3.364450339
H       0.187505517      0.846590305     -2.107508089
           6
  t=        81.00000    4    1
C       0.102156625     -0.088851345     -1.606362562
N      -0.034966762      0.083525823      2.633215389
H      -0.667619572     -0.706413728     -0.801314166
H      -0.439872789      0.521551273      3.319534688
H       0.181405191     -0.766808756      3.412000439
H       0.195626075      0.848984345     -2.120160560
           6
  t=        81.50000    4    1
C       0.100483202     -0.084146536     -1.609540357
N      -0.031952803      0.080098427      2.635163224
H      -0.664522081     -0.762846336     -0.814963984
H      -0.441072082      0.553723422      3.317819567
H       0.149455163     -0.754076529      3.451071794
H       0.203726448      0.852114098     -2.133094510
           6
  t=        82.00000    4    1
C       0.098282983     -0.079995591     -1.612092850
N      -0.028482206      0.075575219      2.637180506
H      -0.654850244     -0.813088360     -0.835472892
H      -0.449397045      0.597301251      3.323318128
H       0.118219374     -0.737588218      3.481398959
H       0.211591684      0.855711884     -2.146049129
           6
  t=        82.50000    4    1
C       0.095584196     -0.076420781     -1.614052172
N      -0.024765994      0.070182270      2.639586768
H      -0.638730130     -0.856492643     -0.862762803
H      -0.462113197      0.649353104      3.331707081
H       0.087890889     -0.717544131      3.502870936
H       0.219016220      0.859386544     -2.158725369
           6
  t=        83.00000    4    1
C       0.092425163     -0.073424335     -1.615464007
N      -0.021017917      0.064190482      2.642675335
H      -0.616418923     -0.892575762     -0.896612730
H      -0.476437270      0.706386548      3.338855503
H       0.058652968     -0.694207809      3.515548232
H       0.225804358      0.862673168     -2.170805388
           6
  t=        83.50000    4    1
C       0.088852736     -0.070992293     -1.616384177
N      -0.017414032      0.057862031      2.646646019
H      -0.588289970     -0.921023414     -0.936676151
H      -0.490103305      0.765150190      3.341699635
H       0.030682855     -0.667963591      3.519723638
H       0.231774570      0.865084231     -2.181976362
           6
  t=        84.00000    4    1
C       0.084922645     -0.069095704     -1.616877698
N      -0.014083330      0.051432087      2.651590030
H      -0.554841580     -0.941724784     -0.982471290
H      -0.501487261      0.822969218      3.338346523
H       0.004145239     -0.639397802      3.516028717
H       0.236765100      0.866157772     -2.191951802
           6
  t=        84.50000    4    1
C       0.080702007     -0.067687578     -1.617019864
N      -0.011113341      0.045115266      2.657496588
H      -0.516730756     -0.954848043     -1.033349780
H      -0.509507681      0.877761034      3.327828375
H      -0.020830139     -0.609403592      3.505588703
H       0.240638813      0.865496246     -2.200491277
           6
  t=        85.00000    4    1
C       0.076274484     -0.066694739     -1.616898675
N      -0.008558025      0.039122427      2.664260793
H      -0.474832664     -0.960969173     -1.088451226
H      -0.513474975      0.927924577      3.309805653
H      -0.044190289     -0.579303523      3.490212590
H       0.243281844      0.862798264     -2.207419288
           6
  t=        85.50000    4    1
C       0.071747402     -0.066002803     -1.616615002
N      -0.006442239      0.033676994      2.671688092
H      -0.430318126     -0.961270961     -1.146670033
H      -0.512962121      0.972211679      3.284334243
H      -0.066025226     -0.550948299      3.472567006
H       0.244595470      0.857879158     -2.212659716
           6
  t=        86.00000    4    1
C       0.067253183     -0.065433013     -1.616275322
N      -0.004762129      0.029021662      2.679503271
H      -0.384693041     -0.957809819     -1.206684346
H      -0.507714149      1.009620722      3.251713166
H      -0.086649548     -0.526704170      3.456204439
H       0.244514985      0.850662716     -2.216294183
           6
  t=        86.50000    4    1
C       0.062934631     -0.064723076     -1.615979692
N      -0.003485158      0.025403492      2.687382488
H      -0.339701450     -0.953743791     -1.267058067
H      -0.497593156      1.039323203      3.212395013
H      -0.106653004     -0.509171703      3.445201981
H       0.243083805      0.841180219     -2.218597555
           6
  t=        87.00000    4    1
C       0.058919749     -0.063540907     -1.615809860
N      -0.002557115      0.023029158      2.695024152
H      -0.297072158     -0.953229949     -1.326420250
H      -0.482554483      1.060626349      3.166943753
H      -0.126827557     -0.500524935      3.443210219
H       0.240500735      0.829629854     -2.219991535
           6
  t=        87.50000    4    1
C       0.055294784     -0.061552900     -1.615804275
N      -0.001920862      0.022001867      2.702242790
H      -0.258145548     -0.960692230     -1.383803938
H      -0.462649927      1.072980087      3.116033067
H      -0.147907870     -0.501641178      3.452148274
H       0.237071781      0.816456760     -2.221001089
           6
  t=        88.00000    4    1
C       0.052072273     -0.058543484     -1.615926375
N      -0.001537963      0.022279227      2.709025817
H      -0.223434415     -0.979430733     -1.439022269
H      -0.438055108      1.076035147      3.060473039
H      -0.170245977     -0.511573930      3.471390965
H       0.233154054      0.802386077     -2.222258429
           6
  t=        88.50000    4    1
C       0.049176411     -0.054534260     -1.616063267
N      -0.001395560      0.023684491      2.715504266
H      -0.192421694     -1.010182515     -1.492693088
H      -0.409115529      1.069756824      3.001242123
H      -0.193670185     -0.527823247      3.498146643
H       0.229128295      0.788402563     -2.224497355
           6
  t=        89.00000    4    1
C       0.046470729     -0.049810500     -1.616069997
N      -0.001492350      0.025953255      2.721864431
H      -0.163863780     -1.050717622     -1.545768525
H      -0.376408488      1.054610478      2.939505475
H      -0.217617894     -0.547170265      3.528668745
H       0.225372341      0.775662478     -2.228498672
           6
  t=        89.50000    4    1
C       0.043812131     -0.044824270     -1.615828928
N      -0.001815271      0.028769831      2.728268362
H      -0.136393714     -1.096824129     -1.598939363
H      -0.340816634      1.031842042      2.876598320
H      -0.241385397     -0.566463529      3.559378341
H       0.222220553      0.765325450     -2.234980173
           6
  t=        90.00000    4    1
C       0.041093196     -0.040047980     -1.615287041
N      -0.002321368      0.031771868      2.734820773
H      -0.108977691     -1.143825192     -1.652345654
H      -0.303590091      1.003828880      2.813933228
H      -0.264317488     -0.583034420      3.587417101
H       0.219916239      0.758328185     -2.244442293
           6
  t=        90.50000    4    1
C       0.038257305     -0.035865433     -1.614463853
N      -0.002932716      0.034536835      2.741578434
H      -0.081052859     -1.187671319     -1.705633130
H      -0.266334906      0.974365725      2.752782750
H      -0.285889235     -0.594795704      3.610734316
H       0.218569098      0.755179908     -2.257017502
           6
  t=        91.00000    4    1
C       0.035294123     -0.032528537     -1.613442087
N      -0.003549028      0.036589597      2.748583333
H      -0.052452654     -1.225349935     -1.758152890
H      -0.230826351      0.948515186      2.693937580
H      -0.305717363     -0.600197566      3.627967770
H       0.218134210      0.755856727     -2.272381622
           6
  t=        91.50000    4    1
C       0.032227031     -0.030163436     -1.612351229
N      -0.004079161      0.037475890      2.755893359
H      -0.023270515     -1.254847402     -1.809141322
H      -0.198584033      0.931522576      2.637422410
H      -0.323547472     -0.598163281      3.638301564
H       0.218425423      0.759836654     -2.289769616
           6
  t=        92.00000    4    1
C       0.029100662     -0.028800614     -1.611348243
N      -0.004477135      0.036905172      2.763577446
H       0.006252232     -1.274942633     -1.857832233
H      -0.170375666      0.926798260      2.582648747
H      -0.339249720     -0.588056079      3.641380707
H       0.219151677      0.766251315     -2.308093044
           6
  t=        92.50000    4    1
C       0.025970159     -0.028409630     -1.610598868
N      -0.004752717      0.034872738      2.771664597
H       0.035802731     -1.284989970     -1.903511184
H      -0.146052892      0.934225215      2.529133013
H      -0.352836130     -0.569682952      3.637301560
H       0.219968585      0.774081993     -2.326108690
           6
  t=        93.00000    4    1
C       0.022893570     -0.028927875     -1.610262542
N      -0.004942214      0.031648068      2.780088354
H       0.065040803     -1.284749514     -1.945534839
H      -0.124903886      0.950353346      2.477199385
H      -0.364513739     -0.543326875      3.626680630
H       0.220524845      0.782332112     -2.342578762
           6
  t=        93.50000    4    1
C       0.019927070     -0.030279632     -1.610482270
N      -0.005064395      0.027647832      2.788673019
H       0.093622962     -1.274275999     -1.983335088
H      -0.106170105      0.970215056      2.428029962
H      -0.374780282     -0.509797821      3.610795672
H       0.220495072      0.790143114     -2.356387287
           6
  t=        94.00000    4    1
C       0.017122302     -0.032385831     -1.611378999
N      -0.005089660      0.023310665      2.797152789
H       0.121216167     -1.253861327     -2.016420743
H      -0.089334029      0.989115286      2.383204833
H      -0.384564829     -0.470483329      3.591779454
H       0.219597636      0.796853437     -2.366605066
           6
  t=        94.50000    4    1
C       0.014524908     -0.035166393     -1.613048760
N      -0.004926703      0.019034736      2.805193574
H       0.147508998     -1.224025301     -2.044386128
H      -0.074147343      1.003485269      2.344236070
H      -0.395384761     -0.427335330      3.572782088
H       0.217600986      0.802017798     -2.372514555
           6
  t=        95.00000    4    1
C       0.012173253     -0.038536981     -1.615560455
N      -0.004424181      0.015155121      2.812417548
H       0.172227167     -1.185553010     -2.066934885
H      -0.060547476      1.010981970      2.312320190
H      -0.409406144     -0.382655930      3.557876750
H       0.214323242      0.805406607     -2.373611766
           6
  t=        95.50000    4    1
C       0.010096392     -0.042401183     -1.618952278
N      -0.003396995      0.011917826      2.818459872
H       0.195160956     -1.139581723     -2.083928292
H      -0.048565814      1.010285377      2.288263264
H      -0.429170208     -0.338534575      3.551345524
H       0.209628977      0.807000500     -2.369599599
           6
  t=        96.00000    4    1
C       0.008310272     -0.046638539     -1.623225155
N      -0.001690202      0.009438516      2.823075473
H       0.216214064     -1.087741141     -2.095468516
H      -0.038259461      1.000869018      2.272479179
H      -0.456773685     -0.296045668      3.556196604
H       0.203425617      0.806988708     -2.360381804
           6
  t=        96.50000    4    1
C       0.006811172     -0.051089159     -1.628332250
N       0.000738860      0.007681458      2.826248490
H       0.235484552     -1.032341522     -2.102024389
H      -0.029667339      0.982841811      2.264998402
H      -0.492771588     -0.254798213      3.572634095
H       0.195660576      0.805774235     -2.346061433
           6
  t=        97.00000    4    1
C       0.005565940     -0.055538042     -1.634165426
N       0.003782232      0.006496494      2.828209973
H       0.253383291     -0.976570252     -2.104590740
H      -0.022786024      0.956881258      2.265458179
H      -0.535668680     -0.213382420      3.597821900
H       0.186319087      0.803983573     -2.326942649
           6
  t=        97.50000    4    1
C       0.004500747     -0.059708361     -1.640543902
N       0.007221817      0.005687372      2.829344794
H       0.270770045     -0.924579126     -2.104824788
H      -0.017561980      0.924262652      2.273056895
H      -0.582489713     -0.170347892      3.627223442
H       0.175421971      0.802473473     -2.303530116
           6
  t=        98.00000    4    1
C       0.003495386     -0.063282276     -1.647217924
N       0.010807453      0.005051348      2.830076554
H       0.289024762     -0.881227966     -2.105016716
H      -0.013897470      0.886985324      2.286460496
H      -0.629858096     -0.124879318      3.656295371
H       0.163022076      0.802321651     -2.276515678
           6
  t=        98.50000    4    1
C       0.002397101     -0.065970516     -1.653905811
N       0.014315609      0.004373043      2.830806528
H       0.309889142     -0.851212829     -2.107688535
H      -0.011667014      0.847964542      2.303671108
H      -0.674794982     -0.076902436      3.681468066
H       0.149198048      0.804782873     -2.246739243
           6
  t=        99.00000    4    1
C       0.001065555     -0.067625201     -1.660369793
N       0.017572818      0.003400455      2.831905695
H       0.334940996     -0.837621990     -2.114769038
H      -0.010740226      0.811164489      2.321931837
H      -0.715021844     -0.026883148      3.700352143
H       0.134044342      0.811187783     -2.215111307
           6
  t=        99.50000    4    1
C      -0.000565300     -0.068331220     -1.666496125
N       0.020455979      0.001843344      2.833718437
H       0.364871513     -0.840670304     -2.126760065
H      -0.011000618      0.781384228      2.337853775
H      -0.748945872      0.024409349      3.711560149
H       0.117657272      0.822764805     -2.182492975
           6
  t=       100.00000    4    1
C      -0.002453018     -0.068390929     -1.672320670
N       0.022882577     -0.000571034      2.836537713
H       0.399093633     -0.857630838     -2.142577091
H      -0.012335779      0.763314717      2.348020002
H      -0.775533711      0.076071603      3.714447463
H       0.100119273      0.840389202     -2.149550730
