           6
  t=         0.00000    9    3
C      -0.026830602      0.022634629      0.022249012
N       0.014827381     -0.015965530      1.314413908
H       1.040858850     -0.128829959     -0.321440833
H       0.923103527      0.109680142      1.779676391
H      -0.937792745      0.000230166      1.843685730
H      -0.912719122     -0.028712303     -0.557748589
           6
  t=         0.50000    9    3
C      -0.023807558      0.022427871      0.019569087
N       0.013011211     -0.013848749      1.313068134
H       1.019782778     -0.120149692     -0.298481788
H       0.924928996      0.088948390      1.775265033
H      -0.930147312     -0.004838072      1.838170334
H      -0.911874029     -0.038541839     -0.520172805
           6
  t=         1.00000   12    3
C      -0.020218436      0.022204451      0.014498823
N       0.010739054     -0.011825350      1.314351207
H       0.997196440     -0.110115095     -0.279764096
H       0.923632811      0.067674711      1.771434551
H      -0.915341224     -0.008650268      1.831073368
H      -0.913962230     -0.048943944     -0.485419742
           6
  t=         1.50000    8    2
C      -0.015504404      0.022121099      0.007914669
N       0.007703625     -0.009966442      1.317766501
H       0.975700680     -0.099685089     -0.266733424
H       0.922202564      0.046700318      1.767007905
H      -0.895445095     -0.011350796      1.822895979
H      -0.924885941     -0.060534682     -0.454903266
           6
  t=         2.00000   11    2
C      -0.010135997      0.022249028     -0.001066017
N       0.004194011     -0.007655764      1.323637367
H       0.958163967     -0.087984756     -0.257622494
H       0.916954758      0.020063895      1.763493004
H      -0.868589206     -0.014241849      1.812640889
H      -0.944113865     -0.076335887     -0.424884576
           6
  t=         2.50000   11    2
C      -0.005267566      0.022518509     -0.010189915
N       0.001034796     -0.005320294      1.330066406
H       0.945814231     -0.079232593     -0.252263362
H       0.910570810     -0.004787032      1.761058454
H      -0.843365734     -0.018987739      1.803484490
H      -0.964675658     -0.091149497     -0.399343383
           6
  t=         3.00000    8    2
C      -0.000993476      0.023011414     -0.020600528
N      -0.001810028     -0.002777370      1.338171108
H       0.943429140     -0.072977200     -0.255499145
H       0.902819139     -0.030193471      1.760516348
H      -0.821743479     -0.025485405      1.798160264
H      -0.987524693     -0.106701731     -0.378893431
           6
  t=         3.50000    8    2
C       0.002467620      0.023921297     -0.031117864
N      -0.004188307      0.000110784      1.346874249
H       0.957389126     -0.069214861     -0.269463576
H       0.894797113     -0.058377747      1.763127646
H      -0.807394258     -0.033203272      1.799350547
H      -1.015977550     -0.125524520     -0.364426952
           6
  t=         4.00000    8    2
C       0.005156097      0.025025856     -0.042520563
N      -0.006014985      0.003337083      1.356536892
H       0.980977848     -0.066701502     -0.292036966
H       0.887872607     -0.089259948      1.767656466
H      -0.803364629     -0.042089222      1.807930353
H      -1.043301778     -0.146248578     -0.353448331
           6
  t=         4.50000    8    2
C       0.007232926      0.026276801     -0.054653040
N      -0.007308963      0.006962363      1.366888723
H       1.010987925     -0.064984960     -0.322148168
H       0.882926735     -0.123429277      1.773864813
H      -0.810592748     -0.052251457      1.824192565
H      -1.067886971     -0.168899001     -0.345180341
           6
  t=         5.00000    8    2
C       0.008904511      0.027616234     -0.067387969
N      -0.008203529      0.011026735      1.377781317
H       1.043621162     -0.063691364     -0.358409667
H       0.880288143     -0.161243355      1.781426036
H      -0.827608628     -0.063750470      1.847082469
H      -1.088339242     -0.193299446     -0.339082855
           6
  t=         5.50000    8    2
C       0.010357135      0.028986681     -0.080619713
N      -0.008898207      0.015546347      1.389174749
H       1.075310732     -0.062545560     -0.399334039
H       0.879669053     -0.202872254      1.789885111
H      -0.851173440     -0.076503142      1.874539190
H      -1.103488609     -0.219178160     -0.334830485
           6
  t=         6.00000    8    2
C       0.011729829      0.030335909     -0.094256080
N      -0.009586191      0.020513338      1.401093091
H       1.103151294     -0.061373558     -0.443482280
H       0.880228090     -0.248283293      1.798638208
H      -0.877433602     -0.090293228      1.904128939
H      -1.112413021     -0.246226913     -0.332256824
           6
  t=         6.50000    5    2
C       0.013112043      0.031618206     -0.108212513
N      -0.010402417      0.025898818      1.413581009
H       1.125004475     -0.060086869     -0.489541365
H       0.880727268     -0.297214177      1.806968114
H      -0.902863981     -0.104840967      1.933574041
H      -1.114451492     -0.274130560     -0.331307383
           6
  t=         7.00000    5    2
C       0.014726558      0.032795835     -0.122757608
N      -0.011502637      0.031501325      1.426903856
H       1.139732728     -0.058726762     -0.535691831
H       0.881256660     -0.347908914      1.813401101
H      -0.925877567     -0.119500515      1.960572445
H      -1.110632111     -0.302001130     -0.330514640
           6
  t=         7.50000    5    2
C       0.016416831      0.033832376     -0.137461625
N      -0.012791736      0.037423391      1.440853438
H       1.146176033     -0.057250924     -0.581610219
H       0.878839366     -0.400937134      1.817937767
H      -0.943391308     -0.134437227      1.984167772
H      -1.099358619     -0.330136952     -0.331470412
           6
  t=         8.00000    5    2
C       0.018180511      0.034698688     -0.152240867
N      -0.014221764      0.043609451      1.455422303
H       1.143956898     -0.055708197     -0.626459931
H       0.872189560     -0.455489639      1.819981920
H      -0.954268471     -0.149532760      2.003383944
H      -1.080742676     -0.358297682     -0.334332032
           6
  t=         8.50000    5    2
C       0.019998706      0.035369541     -0.167000807
N      -0.015708001      0.050014760      1.470575741
H       1.133131823     -0.054166627     -0.669547692
H       0.860267150     -0.510726001      1.819081423
H      -0.958056622     -0.164813098      2.017567064
H      -1.055205328     -0.386307631     -0.339329972
           6
  t=         9.00000    5    2
C       0.021824488      0.035817928     -0.181613660
N      -0.017121970      0.056628796      1.486251750
H       1.114254595     -0.052722228     -0.710345754
H       0.842272613     -0.565869107      1.814908149
H      -0.954949540     -0.180590614      2.026241329
H      -1.023533367     -0.414067739     -0.346848128
           6
  t=         9.50000    5    2
C       0.023528470      0.035993272     -0.195847088
N      -0.018243957      0.063535752      1.502367054
H       1.088725459     -0.051553482     -0.748629573
H       0.817521726     -0.620335872      1.807146119
H      -0.945895458     -0.197869961      2.028761406
H      -0.987006813     -0.441545564     -0.357759038
           6
  t=        10.00000    5    2
C       0.025412701      0.036046364     -0.209824220
N      -0.019277515      0.070402948      1.518855868
H       1.055737648     -0.050480576     -0.783986995
H       0.786872472     -0.672922170      1.795392570
H      -0.930973725     -0.214353264      2.026406389
H      -0.946365728     -0.469595985     -0.370971074
           6
  t=        10.50000    5    2
C       0.027483462      0.036027436     -0.223454476
N      -0.020123619      0.077164331      1.535607884
H       1.016488120     -0.049558940     -0.816374259
H       0.750509103     -0.722789756      1.779651258
H      -0.911512095     -0.230015606      2.019683963
H      -0.903114220     -0.498707071     -0.386585320
           6
  t=        11.00000    5    2
C       0.029722801      0.036000270     -0.236623003
N      -0.020664485      0.083765794      1.552492734
H       0.972641068     -0.048833786     -0.846055357
H       0.708855951     -0.769151847      1.759987922
H      -0.889353862     -0.244959369      2.009327109
H      -0.858920338     -0.529525692     -0.404692657
           6
  t=        11.50000    5    2
C       0.032069607      0.036030594     -0.249180158
N      -0.020763260      0.090171582      1.569360965
H       0.926354396     -0.048329465     -0.873685174
H       0.662592140     -0.811300567      1.736508925
H      -0.866864546     -0.259451840      1.996251383
H      -0.815429407     -0.562753870     -0.425365314
           6
  t=        12.00000    5    2
C       0.034402567      0.036161809     -0.260923676
N      -0.020271806      0.096367912      1.586045711
H       0.880225270     -0.048019249     -0.900373312
H       0.612696984     -0.848627788      1.709329643
H      -0.846837557     -0.273907317      1.981417251
H      -0.774038349     -0.598937463     -0.448659418
           6
  t=        12.50000    5    2
C       0.036537552      0.036364351     -0.271551023
N      -0.019052824      0.102353874      1.602348129
H       0.837087718     -0.047711447     -0.927654023
H       0.560634852     -0.880587976      1.678542258
H      -0.832268992     -0.288699579      1.965522618
H      -0.735764746     -0.638075233     -0.474670182
           6
  t=        13.00000    5    2
C       0.038250420      0.036423159     -0.280540664
N      -0.017027049      0.108018956      1.617877498
H       0.799820913     -0.046449376     -0.956988993
H       0.509143532     -0.906120075      1.644714467
H      -0.826123864     -0.303245842      1.948708702
H      -0.701693037     -0.678671536     -0.503425873
           6
  t=        13.50000    5    2
C       0.039336253      0.036200476     -0.287774077
N      -0.014229746      0.112911236      1.632068097
H       0.771463156     -0.042483953     -0.988375051
H       0.460899168     -0.923157438      1.610731809
H      -0.830017573     -0.315429966      1.932511302
H      -0.672992387     -0.718738802     -0.532901900
           6
  t=        14.00000    5    2
C       0.039673561      0.035701993     -0.293487344
N      -0.010772262      0.116820179      1.644780630
H       0.753458755     -0.035080783     -1.021764435
H       0.416947338     -0.931384276      1.578293295
H      -0.843729512     -0.324099077      1.918018417
H      -0.649379618     -0.757622628     -0.561186611
           6
  t=        14.50000    5    2
C       0.039237854      0.034881791     -0.297907281
N      -0.006839352      0.119643623      1.655996551
H       0.745683983     -0.023728504     -1.056569153
H       0.378196501     -0.931232023      1.548268293
H      -0.865900952     -0.328088263      1.905423088
H      -0.630139552     -0.794601623     -0.586972057
           6
  t=        15.00000    5    2
C       0.038089983      0.033674266     -0.301284130
N      -0.002664478      0.121314309      1.665727984
H       0.746897465     -0.008030161     -1.091432811
H       0.345481102     -0.923458833      1.521234299
H      -0.894404035     -0.326121614      1.894600129
H      -0.614473852     -0.828874834     -0.609255811
           6
  t=        15.50000    5    2
C       0.036345161      0.032022136     -0.303883016
N       0.001503135      0.121800478      1.673996709
H       0.755236088      0.012222903     -1.124501271
H       0.319539405     -0.909073139      1.497603178
H      -0.926782862     -0.317039467      1.885378720
H      -0.601622563     -0.859678849     -0.627278880
           6
  t=        16.00000    5    2
C       0.034139589      0.029891563     -0.305958776
N       0.005423891      0.121116019      1.680829317
H       0.768655310      0.036995348     -1.153807376
H       0.301015025     -0.889337832      1.477652070
H      -0.960601484     -0.299986064      1.877646434
H      -0.590913429     -0.886361256     -0.640508312
           6
  t=        16.50000    5    2
C       0.031605389      0.027277184     -0.307736075
N       0.008881838      0.119327059      1.686259357
H       0.785221604      0.066003730     -1.177565480
H       0.290471647     -0.865802124      1.461522847
H      -0.993640110     -0.274491263      1.871359039
H      -0.581769002     -0.908414471     -0.648618472
           6
  t=        17.00000    5    2
C       0.028856458      0.024200944     -0.309400243
N       0.011690193      0.116553095      1.690331829
H       0.803256463      0.098754685     -1.194322498
H       0.288405244     -0.840325300      1.449209448
H      -1.023969817     -0.240471319      1.866508643
H      -0.573696607     -0.925491238     -0.651467023
           6
  t=        17.50000    8    2
C       0.025984635      0.020712127     -0.311095299
N       0.013700116      0.112969258      1.693118375
H       0.821375533      0.134575760     -1.203073268
H       0.295159576     -0.815037408      1.440517503
H      -1.050000001     -0.198269019      1.863069375
H      -0.566271719     -0.937466389     -0.649119545
           6
  t=        18.00000    8    2
C       0.022926685      0.016825414     -0.313257567
N       0.014870090      0.108929338      1.695301208
H       0.838517949      0.171842342     -1.203026548
H       0.310737807     -0.792433503      1.432544145
H      -1.070500299     -0.148883022      1.859380940
H      -0.558337269     -0.944312125     -0.642087748
           6
  t=        18.50000    8    2
C       0.019869682      0.012670612     -0.315626056
N       0.015020260      0.104468086      1.696329530
H       0.853770459      0.210742872     -1.193742794
H       0.335673692     -0.774159995      1.427666670
H      -1.084232476     -0.092613483      1.857025876
H      -0.550480433     -0.946298718     -0.630225633
           6
  t=        19.00000    8    2
C       0.016864183      0.008345514     -0.318230991
N       0.014108854      0.099752256      1.696263844
H       0.866444329      0.250565827     -1.175076594
H       0.369748611     -0.761414590      1.425731683
H      -1.090414751     -0.030506820      1.855917889
H      -0.542597239     -0.943951871     -0.613919674
           6
  t=        19.50000    8    2
C       0.013963916      0.003961930     -0.321062456
N       0.012154222      0.094890674      1.695138365
H       0.875991532      0.290653841     -1.147127261
H       0.412233723     -0.754337161      1.426857479
H      -1.088601829      0.036194419      1.855952728
H      -0.534750799     -0.938075181     -0.593678061
           6
  t=        20.00000    8    2
C       0.011229603     -0.000352622     -0.324072199
N       0.009248697      0.089923735      1.692954251
H       0.881994751      0.330413277     -1.110224216
H       0.461755476     -0.751934124      1.431493532
H      -1.078754031      0.106109313      1.857044758
H      -0.527195820     -0.929767253     -0.570125839
           6
  t=        20.50000    5    2
C       0.008724590     -0.004457210     -0.327176720
N       0.005570190      0.084837182      1.689694870
H       0.884222575      0.369329306     -1.065007895
H       0.516253956     -0.752333895      1.440301397
H      -1.061371475      0.177793084      1.859158036
H      -0.520367099     -0.920420039     -0.544011316
           6
  t=        21.00000    4    1
C       0.006393414     -0.008376571     -0.330730943
N       0.001462384      0.079739648      1.685886212
H       0.882948621      0.407912142     -1.011197182
H       0.572577346     -0.754207682      1.451777854
H      -1.037405723      0.249792017      1.860531057
H      -0.514549728     -0.911633669     -0.515433127
           6
  t=        21.50000    4    1
C       0.004188738     -0.011739342     -0.334340124
N      -0.002861490      0.074567317      1.681187287
H       0.878328162      0.444647148     -0.949854467
H       0.628501261     -0.756150448      1.467504699
H      -1.007651143      0.321082726      1.862145071
H      -0.509279268     -0.905810222     -0.485854291
           6
  t=        22.00000    4    1
C       0.002341325     -0.014478395     -0.337592258
N      -0.007173981      0.069140900      1.675261022
H       0.870392484      0.479504629     -0.883268899
H       0.682064738     -0.754913493      1.489215908
H      -0.974091617      0.390852026      1.865329152
H      -0.506550126     -0.903663716     -0.456270932
           6
  t=        22.50000    4    1
C       0.000870927     -0.016468171     -0.340086261
N      -0.011271331      0.063456338      1.667786351
H       0.859924804      0.512430015     -0.812816677
H       0.731503240     -0.749729930      1.517194178
H      -0.938188683      0.458401306      1.871127304
H      -0.506985725     -0.906646446     -0.426948196
           6
  t=        23.00000    4    1
C      -0.000318166     -0.017710618     -0.341676623
N      -0.014970148      0.057464619      1.658730113
H       0.847870933      0.543645950     -0.740100133
H       0.775023456     -0.739605364      1.551686861
H      -0.900822154      0.523664877      1.880112111
H      -0.510267231     -0.915205595     -0.398375514
           6
  t=        23.50000    4    1
C      -0.001376098     -0.018314978     -0.342212565
N      -0.018173080      0.051144184      1.648097154
H       0.835403161      0.573573948     -0.666672065
H       0.811418655     -0.723830500      1.592556975
H      -0.862216161      0.586607115      1.892632485
H      -0.515701015     -0.928836062     -0.371074626
           6
  t=        24.00000    4    1
C      -0.002479085     -0.018458077     -0.341563054
N      -0.020863265      0.044508002      1.635918588
H       0.823681996      0.602727676     -0.593879582
H       0.839929315     -0.701970807      1.639494323
H      -0.821926050      0.647011230      1.908871726
H      -0.522268795     -0.946344033     -0.345564027
           6
  t=        24.50000    4    1
C      -0.003793802     -0.018342304     -0.339633407
N      -0.023086596      0.037608849      1.622264187
H       0.813611375      0.631539468     -0.522755258
H       0.860184693     -0.673834588      1.692021701
H      -0.779033167      0.704362367      1.928767614
H      -0.528800222     -0.966162137     -0.322368563
           6
  t=        25.00000    4    1
C      -0.005454763     -0.018169084     -0.336385708
N      -0.024937313      0.030523025      1.607269806
H       0.805674617      0.660241010     -0.453931076
H       0.872220980     -0.639347422      1.749444078
H      -0.732333922      0.757982864      1.951907558
H      -0.534107330     -0.986580654     -0.302087658
           6
  t=        25.50000    4    1
C      -0.007591319     -0.018169833     -0.331798719
N      -0.026591507      0.023299517      1.591072800
H       0.800050893      0.688951975     -0.387449935
H       0.876724821     -0.598056670      1.811205913
H      -0.679992926      0.807477898      1.977902277
H      -0.536904525     -1.005702254     -0.285894957
           6
  t=        26.00000    4    1
C      -0.010235113     -0.018457254     -0.325767530
N      -0.028128241      0.016119425      1.573725487
H       0.796272379      0.717169365     -0.323680105
H       0.873877787     -0.550361810      1.876907805
H      -0.621113805      0.851338433      2.006360934
H      -0.536326607     -1.022289756     -0.274608020
           6
  t=        26.50000    4    1
C      -0.013336031     -0.019054727     -0.318278588
N      -0.029518943      0.009221981      1.555484750
H       0.793481683      0.744180845     -0.263202601
H       0.863601073     -0.497553220      1.945125459
H      -0.556134876      0.887812597      2.035709542
H      -0.531992743     -1.035634203     -0.268378118
           6
  t=        27.00000    4    1
C      -0.016870415     -0.019766727     -0.308984873
N      -0.030498104      0.003022884      1.536338710
H       0.792518142      0.770415401     -0.208492999
H       0.844059145     -0.441971232      2.015430039
H      -0.486857728      0.913798538      2.065148574
H      -0.525075956     -1.048826329     -0.267468204
           6
  t=        27.50000    4    1
C      -0.020569955     -0.020517595     -0.298304417
N      -0.031217087     -0.002539357      1.517035918
H       0.790251152      0.793566916     -0.159634460
H       0.817170591     -0.384695758      2.084775375
H      -0.413969183      0.930359064      2.091635383
H      -0.514768997     -1.059589387     -0.271129491
           6
  t=        28.00000    4    1
C      -0.024333342     -0.021274302     -0.286330188
N      -0.031679431     -0.007401610      1.497950273
H       0.785435697      0.812659292     -0.116932206
H       0.783874480     -0.327233444      2.151229275
H      -0.338679140      0.937899143      2.113213717
H      -0.500713122     -1.067116049     -0.279256422
           6
  t=        28.50000    4    1
C      -0.028091046     -0.021987545     -0.273092263
N      -0.031847117     -0.011513314      1.479362029
H       0.777360385      0.827157703     -0.080790713
H       0.744884922     -0.271333543      2.213140745
H      -0.262482811      0.937192343      2.128253468
H      -0.482771986     -1.071185365     -0.291699257
           6
  t=        29.00000    4    1
C      -0.031797434     -0.022592445     -0.258570449
N      -0.031661621     -0.014891953      1.461436791
H       0.765624444      0.836826059     -0.051674235
H       0.700653045     -0.218663226      2.269305847
H      -0.186812618      0.929739216      2.135704954
H      -0.460920005     -1.071924208     -0.308281527
           6
  t=        29.50000    4    1
C      -0.035457079     -0.023089382     -0.242702372
N      -0.031193906     -0.017509859      1.444060681
H       0.750464274      0.841924917     -0.029859270
H       0.652114250     -0.169900251      2.320474506
H      -0.111812861      0.915830350      2.135694483
H      -0.435144259     -1.069585841     -0.328763377
           6
  t=        30.00000    1    1
C      -0.039011387     -0.023389498     -0.225537372
N      -0.030349948     -0.019406757      1.427511883
H       0.731739476      0.842722962     -0.015102243
H       0.599865444     -0.128000310      2.364651570
H      -0.039563910      0.898137601      2.125961154
H      -0.405824949     -1.064661207     -0.352410041
           6
  t=        30.50000    1    1
C      -0.042462321     -0.023554064     -0.207826160
N      -0.029315149     -0.020992512      1.411504271
H       0.711452620      0.841662725     -0.004117152
H       0.546276889     -0.090673651      2.404844371
H       0.030403093      0.880001440      2.111154592
H      -0.375204350     -1.058798712     -0.377250364
           6
  t=        31.00000    1    1
C      -0.045710984     -0.023389355     -0.188654179
N      -0.027892138     -0.022141351      1.396257251
H       0.688003842      0.837605506     -0.000809995
H       0.489125146     -0.063033407      2.437836064
H       0.096820875      0.863170067      2.085667441
H      -0.342111777     -1.051548868     -0.404492118
           6
  t=        31.50000    1    1
C      -0.048704092     -0.022863396     -0.167925476
N      -0.026108213     -0.023007494      1.381701304
H       0.661852842      0.831488683     -0.005631950
H       0.428177316     -0.046053371      2.463885482
H       0.159924804      0.849897146      2.049217318
H      -0.307264584     -1.043366902     -0.433837142
           6
  t=        32.00000    1    1
C      -0.051404507     -0.022003912     -0.145559360
N      -0.023998207     -0.023706407      1.367784065
H       0.633670131      0.824518205     -0.019008683
H       0.362941276     -0.040466190      2.483270525
H       0.220297747      0.841865905      2.001487846
H      -0.271382187     -1.034474876     -0.465054478
           6
  t=        32.50000    1    1
C      -0.053805948     -0.020924803     -0.121508640
N      -0.021593627     -0.024283954      1.354475388
H       0.604342737      0.818177431     -0.041186848
H       0.292720362     -0.046522287      2.496074779
H       0.278758908      0.839721744      1.942272144
H      -0.235111196     -1.024757685     -0.497917252
           6
  t=        33.00000    1    1
C      -0.055933449     -0.019829139     -0.095777405
N      -0.018911780     -0.024707984      1.341763982
H       0.574914316      0.814144531     -0.072173179
H       0.216869677     -0.063812826      2.501974388
H       0.336033456      0.842878638      1.871780699
H      -0.199037007     -1.013745136     -0.532099754
           6
  t=        33.50000    1    1
C      -0.057822528     -0.018974310     -0.068442433
N      -0.015947301     -0.024884280      1.329663078
H       0.546356717      0.814035787     -0.111805010
H       0.135061637     -0.091377881      2.500184654
H       0.392418995      0.849800623      1.790850781
H      -0.163753115     -1.000721827     -0.567086914
           6
  t=        34.00000    1    1
C      -0.059493011     -0.018619915     -0.039694625
N      -0.012674217     -0.024680067      1.318216898
H       0.519259918      0.818956824     -0.159691715
H       0.047491715     -0.127898222      2.489624683
H       0.447654367      0.858479641      1.701050297
H      -0.129908609     -0.984858396     -0.602097734
           6
  t=        34.50000    1    1
C      -0.060927841     -0.018960919     -0.009882955
N      -0.009058651     -0.023952367      1.307512211
H       0.493588234      0.829005412     -0.215100745
H      -0.045019300     -0.171803299      2.469157972
H       0.500982467      0.866834695      1.604701071
H      -0.098205320     -0.965407334     -0.636100525
           6
  t=        35.00000    1    1
C      -0.062060754     -0.020067123      0.020450333
N      -0.005074010     -0.022575597      1.297696250
H       0.468575852      0.842982753     -0.276800511
H      -0.141060992     -0.221356053      2.437832712
H       0.551340530      0.872987986      1.504754036
H      -0.069383541     -0.941942889     -0.667915329
           6
  t=        35.50000    1    1
C      -0.062800985     -0.021892290      0.050550609
N      -0.000711614     -0.020457805      1.288992608
H       0.443015967      0.858698648     -0.342907053
H      -0.238771222     -0.274769985      2.395085380
H       0.597614159      0.875487676      1.404554042
H      -0.044185548     -0.914437649     -0.696328838
           6
  t=        36.00000    1    1
C      -0.063077059     -0.024328508      0.079473146
N       0.004012108     -0.017551256      1.281710710
H       0.415761926      0.873683538     -0.410996468
H      -0.336029983     -0.330330128      2.340877056
H       0.638903515      0.873486681      1.307526704
H      -0.023307624     -0.883238116     -0.720202232
           6
  t=        36.50000    1    1
C      -0.062867635     -0.027263434      0.106146306
N       0.009052575     -0.013858017      1.276246757
H       0.386122212      0.885886258     -0.478441306
H      -0.430649054     -0.386473939      2.275696732
H       0.674705946      0.866816253      1.216811941
H      -0.007378493     -0.848995828     -0.738536969
           6
  t=        37.00000    1    1
C      -0.062200077     -0.030609590      0.129454230
N       0.014342650     -0.009420805      1.273064181
H       0.353994337      0.894051422     -0.542721951
H      -0.520519912     -0.441858282      2.200479953
H       0.704891418      0.855879191      1.134951958
H       0.002984479     -0.812649374     -0.750483187
           6
  t=        37.50000    1    1
C      -0.061158361     -0.034263301      0.148432436
N       0.019808004     -0.004324000      1.272588985
H       0.319565319      0.897672577     -0.601708099
H      -0.603870979     -0.495217998      2.116575502
H       0.729774484      0.841229324      1.063663482
H       0.007540786     -0.775573364     -0.755671812
           6
  t=        38.00000    1    1
C      -0.059846568     -0.038146868      0.162343812
N       0.025344603      0.001320745      1.275139626
H       0.283437758      0.896877203     -0.653769362
H      -0.679156847     -0.545547084      2.025756625
H       0.750009966      0.823814444      1.003886173
H       0.006172355     -0.739222839     -0.754094229
           6
  t=        38.50000    1    1
C      -0.058355793     -0.042195245      0.170758631
N       0.030821986      0.007387897      1.280862070
H       0.246468057      0.892226856     -0.697731838
H      -0.745104427     -0.592109575      1.930020819
H       0.766458313      0.804794087      0.955830432
H      -0.001213432     -0.705085165     -0.746043661
           6
  t=        39.00000    1    1
C      -0.056763858     -0.046317036      0.173629758
N       0.036098880      0.013742945      1.289665810
H       0.209607100      0.884462924     -0.732829682
H      -0.800739267     -0.634372875      1.831479189
H       0.780053338      0.785300537      0.919210012
H      -0.014586214     -0.674785928     -0.732292029
           6
  t=        39.50000    1    1
C      -0.055131588     -0.050366275      0.171276484
N       0.041039932      0.020249121      1.301224336
H       0.173767175      0.874302692     -0.758619734
H      -0.845358277     -0.671935543      1.732270810
H       0.791621467      0.766222802      0.893562693
H      -0.033782897     -0.650170506     -0.714224453
           6
  t=        40.00000    1    1
C      -0.053491736     -0.054122185      0.164308260
N       0.045524533      0.026767223      1.315034709
H       0.139707138      0.862305895     -0.774912066
H      -0.878515255     -0.704476659      1.634484911
H       0.801786120      0.748112656      0.878422809
H      -0.058566230     -0.633365988     -0.693923035
           6
  t=        40.50000    1    1
C      -0.051844458     -0.057292961      0.153516623
N       0.049446762      0.033153626      1.330503288
H       0.107977391      0.848811355     -0.781773708
H      -0.899956625     -0.731695137      1.540116409
H       0.810987156      0.731199996      0.873416154
H      -0.088706461     -0.626721071     -0.674117917
           6
  t=        41.00000    1    1
C      -0.050157022     -0.059546923      0.139803634
N       0.052698262      0.039252846      1.347006875
H       0.078983942      0.834037876     -0.779736255
H      -0.909506149     -0.753296284      1.451127567
H       0.819548954      0.715401783      0.878046836
H      -0.123994430     -0.632455137     -0.657825606
           6
  t=        41.50000    1    1
C      -0.048410438     -0.060620606      0.123969119
N       0.055287387      0.044977375      1.363951148
H       0.053243706      0.818201809     -0.769053516
H      -0.907653312     -0.769419479      1.368705444
H       0.827332771      0.700628928      0.891954006
H      -0.164660968     -0.652477196     -0.646884197
           6
  t=        42.00000    1    1
C      -0.046624800     -0.060414648      0.106470561
N       0.057302233      0.050307169      1.380873676
H       0.031341515      0.801319720     -0.749913131
H      -0.894901226     -0.780285912      1.293420948
H       0.833929264      0.686906501      0.915756851
H      -0.211363244     -0.687512292     -0.641318123
           6
  t=        42.50000    1    1
C      -0.044774386     -0.058979495      0.087705382
N       0.058777726      0.055147156      1.397368225
H       0.013522879      0.783532977     -0.723212028
H      -0.872201876     -0.785972037      1.225930616
H       0.839278915      0.674691439      0.948990280
H      -0.264126820     -0.736160702     -0.639509566
           6
  t=        43.00000    1    1
C      -0.042884741     -0.056572089      0.067907298
N       0.059725677      0.059390157      1.413136760
H      -0.000135337      0.765363057     -0.690442335
H      -0.840129706     -0.786058478      1.166911671
H       0.843205343      0.664301895      0.991020693
H      -0.322137685     -0.795132835     -0.638651885
           6
  t=        43.50000    1    1
C      -0.041108770     -0.053655554      0.047314678
N       0.060192990      0.062995161      1.427957110
H      -0.009478786      0.748139052     -0.653948019
H      -0.799205450     -0.780377464      1.116518218
H       0.845711806      0.655979862      1.041399125
H      -0.383863781     -0.860083414     -0.635857503
           6
  t=        44.00000    1    1
C      -0.039632212     -0.050811107      0.026289366
N       0.060234004      0.065953310      1.441664851
H      -0.014377459      0.734364477     -0.617050959
H      -0.750276280     -0.769224663      1.074599787
H       0.847112002      0.650123856      1.099447896
H      -0.447445092     -0.926575260     -0.629000257
           6
  t=        44.50000    1    1
C      -0.038613770     -0.048664998      0.005305108
N       0.059890040      0.068268786      1.454151113
H      -0.014812179      0.727785164     -0.583822480
H      -0.694487388     -0.753319231      1.040907249
H       0.848003978      0.647244190      1.164222147
H      -0.511038134     -0.990746830     -0.616942974
           6
  t=        45.00000    1    1
C      -0.038161542     -0.047799398     -0.015145576
N       0.059190452      0.069959516      1.465357848
H      -0.010910186      0.732726381     -0.558259025
H      -0.633276142     -0.733819645      1.015178909
H       0.849181430      0.647840838      1.234607351
H      -0.572992749     -1.049582154     -0.599370795
           6
  t=        45.50000    1    1
C      -0.038330769     -0.048611186     -0.034693231
N       0.058168679      0.071069687      1.475269546
H      -0.002942271      0.752450788     -0.542942543
H      -0.568379076     -0.712359495      0.997187828
H       0.851429805      0.652230339      1.309469743
H      -0.631893905     -1.100915228     -0.576524600
           6
  t=        46.00000    1    1
C      -0.039132527     -0.051171441     -0.053200626
N       0.056888929      0.071691102      1.483906329
H       0.008675077      0.787284701     -0.538009536
H      -0.501792118     -0.691071799      0.986730769
H       0.855208888      0.660347326      1.387809357
H      -0.686549225     -1.143303195     -0.548978254
           6
  t=        46.50000    1    1
C      -0.040548368     -0.055209785     -0.070749919
N       0.055471040      0.071984443      1.491321527
H       0.023375740      0.834102033     -0.541398472
H      -0.435623728     -0.672598871      0.983527264
H       0.860330866      0.671603809      1.468836313
H      -0.735981086     -1.175841569     -0.517485689
           6
  t=        47.00000    1    1
C      -0.042549462     -0.060250416     -0.087521926
N       0.054092645      0.072187565      1.497602246
H       0.040487764      0.887636540     -0.550147391
H      -0.371822303     -0.660089071      0.987027099
H       0.865848283      0.684892196      1.551905294
H      -0.779432981     -1.197978305     -0.482870665
           6
  t=        47.50000    1    1
C      -0.045112419     -0.065785078     -0.103671528
N       0.052957502      0.072599726      1.502864540
H       0.059297751      0.942355538     -0.561597337
H      -0.311846691     -0.657062038      0.996274629
H       0.870267489      0.698730748      1.636360893
H      -0.816348659     -1.209389054     -0.445949457
           6
  t=        48.00000    1    1
C      -0.048224964     -0.071384149     -0.119266239
N       0.052243032      0.073531695      1.507226016
H       0.079089810      0.993658492     -0.573886159
H      -0.256341234     -0.666881816      1.010138494
H       0.871929448      0.711489205      1.721432584
H      -0.846320145     -1.209912328     -0.407512494
           6
  t=        48.50000    1    1
C      -0.051883667     -0.076732921     -0.134278881
N       0.052053509      0.075224658      1.510752440
H       0.099171301      1.038224563     -0.585920925
H      -0.204889358     -0.691807170      1.027968730
H       0.869327523      0.721610397      1.806235076
H      -0.869054361     -1.199509668     -0.368354850
           6
  t=        49.00000    1    1
C      -0.056087823     -0.081624805     -0.148608212
N       0.052406015      0.077768923      1.513413150
H       0.118888834      1.073887101     -0.597167697
H      -0.156073133     -0.731994695      1.050236045
H       0.861272245      0.727759695      1.889825488
H      -0.884372152     -1.178237791     -0.329317744
           6
  t=        49.50000    1    1
C      -0.060833307     -0.085944752     -0.162112148
N       0.053261823      0.081069721      1.515089538
H       0.137627291      1.099381121     -0.607428346
H      -0.107978781     -0.785069090      1.078558086
H       0.846903267      0.728898497      1.971267423
H      -0.892222840     -1.146221518     -0.291324317
           6
  t=        50.00000    1    1
C      -0.066112560     -0.089664253     -0.174647912
N       0.054587407      0.084886354      1.515642484
H       0.154803426      1.114146831     -0.616647334
H      -0.058922694     -0.846611896      1.115006949
H       0.825581144      0.724312145      2.049705639
H      -0.892691541     -1.103599971     -0.255414024
           6
  t=        50.50000    1    1
C      -0.071916822     -0.092818154     -0.186130159
N       0.056386605      0.088926201      1.515007051
H       0.169892102      1.118101807     -0.624735279
H      -0.007963135     -0.911506506      1.161098684
H       0.796912570      0.713631287      2.124433833
H      -0.885959168     -1.050557297     -0.222599931
           6
  t=        51.00000    1    1
C      -0.078156030     -0.095286168     -0.196524720
N       0.058604729      0.092878095      1.513205344
H       0.182503160      1.110970564     -0.631644302
H       0.045092550     -0.975369889      1.217345430
H       0.761346020      0.696844961      2.194526838
H      -0.872589210     -0.988298862     -0.193230830
           6
  t=        51.50000    1    1
C      -0.084626873     -0.096821938     -0.205778579
N       0.061194296      0.096415582      1.510298426
H       0.192248178      1.092541450     -0.637444247
H       0.099731351     -1.034224108      1.283616389
H       0.719550080      0.674238603      2.258849418
H      -0.854109848     -0.919273818     -0.167450563
           6
  t=        52.00000    1    1
C      -0.091031724     -0.097128364     -0.213853863
N       0.064158665      0.099261941      1.506402927
H       0.198741091      1.062919000     -0.642228135
H       0.154902746     -1.084820241      1.359010798
H       0.672117043      0.646364591      2.316397697
H      -0.833267283     -0.847080702     -0.145332904
           6
  t=        52.50000    1    1
C      -0.096965541     -0.095860476     -0.220753516
N       0.067530316      0.101214273      1.501686576
H       0.201716802      1.022649878     -0.646112937
H       0.209333648     -1.124819998      1.441941786
H       0.619625832      0.613984509      2.366383289
H      -0.814376272     -0.776654388     -0.126681048
           6
  t=        53.00000    1    1
C      -0.101912738     -0.092650272     -0.226529514
N       0.071346567      0.102136900      1.496348316
H       0.201130188      0.972857883     -0.649303723
H       0.261767662     -1.152718638      1.530375543
H       0.562711844      0.578027375      2.408230583
H      -0.803428208     -0.714048988     -0.110825826
           6
  t=        53.50000    1    1
C      -0.105343610     -0.087232358     -0.231264682
N       0.075634840      0.101946448      1.490595630
H       0.197268598      0.915490879     -0.652229243
H       0.311102957     -1.167705179      1.622076148
H       0.502097302      0.539559414      2.441589953
H      -0.807018979     -0.665091184     -0.096649605
           6
  t=        54.00000    1    1
C      -0.106954605     -0.079674004     -0.235006798
N       0.080405982      0.100597150      1.484625546
H       0.190924604      0.853736502     -0.655763300
H       0.356453899     -1.169514541      1.714774693
H       0.438584935      0.499760682      2.466372735
H      -0.829623262     -0.632976838     -0.083089682
           6
  t=        54.50000    1    1
C      -0.106910004     -0.070548976     -0.237672198
N       0.085654150      0.098068465      1.478611418
H       0.183624159      0.792515104     -0.661541968
H       0.397158959     -1.158296353      1.806245869
H       0.373013855      0.459917991      2.482782169
H      -0.870907378     -0.616646385     -0.069892741
           6
  t=        55.00000    1    1
C      -0.105844989     -0.060880552     -0.238991570
N       0.091362530      0.094361503      1.472699744
H       0.177787275      0.738722798     -0.672280177
H       0.432764551     -1.134548963      1.894315612
H       0.306193473      0.421425782      2.491295436
H      -0.925850520     -0.611723420     -0.057889132
           6
  t=        55.50000    1    1
C      -0.104580946     -0.051816073     -0.238565734
N       0.097506443      0.089499073      1.467004873
H       0.176315879      0.700027032     -0.691637151
H       0.463008269     -1.099149341      1.976927763
H       0.238830723      0.385735245      2.492604360
H      -0.987676158     -0.613105356     -0.048397032
           6
  t=        56.00000    4    1
C      -0.103820726     -0.044211572     -0.236047701
N       0.104053886      0.083522009      1.461598254
H       0.181536810      0.681772573     -0.722778024
H       0.487851130     -1.053324453      2.052249677
H       0.171441160      0.354283450      2.487612529
H      -1.050374297     -0.616721801     -0.042446577
           6
  t=        56.50000    4    1
C      -0.104033974     -0.038505322     -0.231565283
N       0.111030155      0.076555667      1.456756511
H       0.194066473      0.684003777     -0.766085862
H       0.508267643     -0.998722802      2.118013005
H       0.103354790      0.328403407      2.477456432
H      -1.109625358     -0.618824875     -0.040844466
           6
  t=        57.00000    4    1
C      -0.105306154     -0.034358815     -0.225141666
N       0.118372189      0.068604703      1.452284982
H       0.212423477      0.702114406     -0.818810845
H       0.524032246     -0.936782569      2.173530050
H       0.035162159      0.309346093      2.463023246
H      -1.162419128     -0.618716420     -0.043559251
           6
  t=        57.50000    4    1
C      -0.107593085     -0.031328500     -0.217224480
N       0.126081415      0.059753504      1.448231498
H       0.234128776      0.729298369     -0.876000225
H       0.535988810     -0.869169360      2.217703473
H      -0.033856166      0.298089488      2.445038937
H      -1.206946901     -0.615356502     -0.050507029
           6
  t=        58.00000    4    1
C      -0.110798350     -0.028991046     -0.208285089
N       0.134164564      0.050099109      1.444668148
H       0.256798556      0.759479070     -0.932721896
H       0.545324225     -0.797497054      2.249721815
H      -0.104802914      0.295250673      2.423737762
H      -1.242150556     -0.608060530     -0.061431878
           6
  t=        58.50000    4    1
C      -0.114836397     -0.027041622     -0.198712332
N       0.142619680      0.039756470      1.441690664
H       0.278679319      0.788290587     -0.985174529
H       0.553561237     -0.723217676      2.269134017
H      -0.178978747      0.300898521      2.398711385
H      -1.267490140     -0.596306211     -0.075976028
           6
  t=        59.00000    4    1
C      -0.119644730     -0.025287171     -0.188778704
N       0.151415140      0.028871145      1.439390966
H       0.298691859      0.812892580     -1.030823813
H       0.562470923     -0.647550559      2.276000806
H      -0.257546034      0.314322506      2.368913266
H      -1.282799924     -0.579644462     -0.093720606
           6
  t=        59.50000    4    1
C      -0.125170960     -0.023607214     -0.178638147
N       0.160460375      0.017635067      1.437803957
H       0.316282662      0.831481801     -1.068114433
H       0.573892039     -0.571542937      2.271123015
H      -0.341045119      0.333914113      2.332866793
H      -1.288190198     -0.557717585     -0.114197143
           6
  t=        60.00000    4    1
C      -0.131349460     -0.021917141     -0.168345166
N       0.169573149      0.006293199      1.436853703
H       0.331235565      0.842896993     -1.096131951
H       0.589605153     -0.496279730      2.256304733
H      -0.428957374      0.357326269      2.289024481
H      -1.283993319     -0.530343399     -0.136872621
           6
  t=        60.50000    4    1
C      -0.138076091     -0.020142145     -0.157890317
N       0.178456161     -0.004868078      1.436317725
H       0.343507080      0.846371249     -1.114351362
H       0.611429664     -0.423057573      2.234605054
H      -0.519578325      0.381823443      2.236161554
H      -1.270798874     -0.497592590     -0.161127624
           6
  t=        61.00000    1    1
C      -0.145184637     -0.018198394     -0.147231806
N       0.186697207     -0.015557573      1.435811807
H       0.353108055      0.841376183     -1.122480703
H       0.641415511     -0.353241624      2.210402000
H      -0.610233828      0.404629208      2.173745262
H      -1.249593558     -0.459839286     -0.186258593
           6
  t=        61.50000    1    1
C      -0.152494081     -0.016054309     -0.136530098
N       0.193889471     -0.025619840      1.435069956
H       0.359466413      0.828562933     -1.120071596
H       0.681372328     -0.288170698      2.188403877
H      -0.697678826      0.424994702      2.101726102
H      -1.221362927     -0.418182774     -0.211766287
           6
  t=        62.00000    1    1
C      -0.159634196     -0.013514275     -0.125473035
N       0.199542950     -0.034888390      1.433379966
H       0.363247420      0.806738887     -1.107480751
H       0.733237717     -0.227033243      2.172611001
H      -0.779165993      0.439359971      2.021816912
H      -1.189057061     -0.373324436     -0.236828295
           6
  t=        62.50000    1    1
C      -0.166217314     -0.010437924     -0.113958714
N       0.203389771     -0.043395503      1.430477670
H       0.364611147      0.775918273     -1.084878385
H       0.796876369     -0.168372333      2.163614956
H      -0.852251035      0.446528487      1.935663163
H      -1.156039064     -0.326761738     -0.261054398
           6
  t=        63.00000    1    1
C      -0.171781935     -0.006676505     -0.101867191
N       0.205381767     -0.051245341      1.426333354
H       0.363787061      0.736289680     -1.052564737
H       0.869703269     -0.110323804      2.158754292
H      -0.915048932      0.445901763      1.845173886
H      -1.126664107     -0.280272860     -0.284407215
           6
  t=        63.50000    1    1
C      -0.175851945     -0.002105707     -0.089055399
N       0.205652550     -0.058538598      1.421048979
H       0.361128332      0.688281503     -1.011046808
H       0.947337297     -0.051576895      2.153797208
H      -0.966280964      0.437400547      1.752348086
H      -1.105708451     -0.235598739     -0.307267114
           6
  t=        64.00000    1    1
C      -0.178059185      0.003325868     -0.075365225
N       0.204416885     -0.065336029      1.414736728
H       0.357235661      0.632689682     -0.961197885
H       1.024999809      0.008259233      2.144847007
H      -1.005199616      0.421349645      1.659129570
H      -1.097109281     -0.194018811     -0.330249235
           6
  t=        64.50000    1    1
C      -0.178287492      0.009554800     -0.060644652
N       0.201890878     -0.071662771      1.407462982
H       0.353152556      0.570851471     -0.904525093
H       1.098564537      0.068857586      2.129252595
H      -1.031478837      0.398370354      1.567335623
H      -1.102495675     -0.156060251     -0.353745024
           6
  t=        65.00000    1    1
C      -0.176750173      0.016390153     -0.044755083
N       0.198260463     -0.077523600      1.399251260
H       0.350637517      0.504829418     -0.843564615
H       1.164928035      0.129506485      2.105624596
H      -1.045133893      0.369295036      1.478646053
H      -1.120551054     -0.121566475     -0.377485766
           6
  t=        65.50000    1    1
C      -0.173952848      0.023533103     -0.027538830
N       0.193681927     -0.082912396      1.390106944
H       0.352476892      0.437489597     -0.782328239
H       1.221937227      0.189334925      2.073500175
H      -1.046488688      0.335097525      1.394627481
H      -1.147735943     -0.090033367     -0.400515792
           6
  t=        66.00000    1    1
C      -0.170579191      0.030626940     -0.008780691
N       0.188294343     -0.087814993      1.380042139
H       0.362626033      0.372210469     -0.726428873
H       1.268156802      0.247412412      2.032996247
H      -1.036191107      0.296832152      1.316771800
H      -1.179714451     -0.060912779     -0.421561560
           6
  t=        66.50000    1    1
C      -0.167335961      0.037350376      0.011736255
N       0.182234381     -0.092209335      1.369097277
H       0.385617015      0.311934966     -0.682099093
H       1.302629345      0.302773085      1.984558728
H      -1.015276771      0.255579708      1.246539617
H      -1.212509293     -0.033743503     -0.439441636
           6
  t=        67.00000    1    1
C      -0.164742107      0.043533822      0.034017852
N       0.175651776     -0.096065984      1.357363033
H       0.424666457      0.257870081     -0.653658101
H       1.324673595      0.354407661      1.928806951
H      -0.985277768      0.212396816      1.185420406
H      -1.243025179     -0.008169641     -0.453275102
           6
  t=        67.50000    1    1
C      -0.162922786      0.049200366      0.057619239
N       0.168722771     -0.099355495      1.345004890
H       0.479380907      0.209122818     -0.641011726
H       1.333767267      0.401278163      1.866447233
H      -0.948386168      0.168287704      1.135001590
H      -1.269112842      0.016051563     -0.462452247
           6
  t=        68.00000    1    1
C      -0.161599890      0.054480879      0.081631222
N       0.161665678     -0.102070944      1.332282130
H       0.545502436      0.163923259     -0.639935125
H       1.329549316      0.442401433      1.798248942
H      -0.907738119      0.124268203      1.096975866
H      -1.289361882      0.039002865     -0.466436915
           6
  t=        68.50000    1    1
C      -0.160296774      0.059509720      0.104900789
N       0.154769619     -0.104238433      1.319556376
H       0.617001107      0.121042012     -0.644860419
H       1.311663424      0.476813198      1.725033106
H      -0.867578190      0.081437227      1.073175824
H      -1.302833936      0.060541888     -0.464746391
           6
  t=        69.00000    1    1
C      -0.158555520      0.064400442      0.126207442
N       0.148419816     -0.105908796      1.307303299
H       0.688239425      0.080174596     -0.651162884
H       1.279411573      0.503409306      1.647687484
H      -0.833006393      0.040926434      1.065643867
H      -1.308898274      0.080299888     -0.457012460
           6
  t=        69.50000    1    1
C      -0.156067205      0.069255268      0.144380017
N       0.143080109     -0.107129732      1.296064103
H       0.754913763      0.041516639     -0.655843095
H       1.231796071      0.521007012      1.567422833
H      -0.809263378      0.003444981      1.076442367
H      -1.307135930      0.098000399     -0.443082498
           6
  t=        70.00000    1    1
C      -0.152699662      0.074138269      0.158549174
N       0.139106390     -0.107938832      1.286245506
H       0.814232103      0.005431211     -0.657239851
H       1.169222293      0.529123184      1.486114340
H      -0.800647623     -0.031207921      1.106898255
H      -1.297380387      0.113723691     -0.423119835
           6
  t=        70.50000    1    1
C      -0.148488448      0.079056128      0.168223640
N       0.136594919     -0.108385993      1.278060160
H       0.864644580     -0.027517774     -0.654516156
H       1.094220905      0.528320075      1.406042657
H      -0.808994583     -0.063772356      1.157258629
H      -1.279691108      0.127697387     -0.397594366
           6
  t=        71.00000    1    1
C      -0.143612531      0.083985322      0.173120151
N       0.135375389     -0.108559406      1.271637415
H       0.905330441     -0.056712277     -0.647280349
H       1.010437594      0.519930485      1.329610786
H      -0.832418800     -0.094903534      1.227009155
H      -1.254281206      0.140131331     -0.367210866
           6
  t=        71.50000    1    1
C      -0.138307442      0.088885430      0.173115816
N       0.134953753     -0.108636773      1.267053499
H       0.935895987     -0.081610265     -0.635381207
H       0.922988156      0.506507361      1.259250348
H      -0.865477069     -0.124916931      1.314941392
H      -1.221647101      0.151196333     -0.332939631
           6
  t=        72.00000    1    1
C      -0.132775727      0.093693684      0.168277015
N       0.134523383     -0.108952672      1.264358035
H       0.956216884     -0.101772905     -0.618826153
H       0.839423440      0.492771421      1.197069458
H      -0.900941732     -0.153726950      1.418785509
H      -1.182823726      0.161043357     -0.296091413
           6
  t=        72.50000    1    1
C      -0.127123428      0.098311716      0.158884521
N       0.133111213     -0.110024202      1.263618364
H       0.966314863     -0.116854194     -0.597759540
H       0.769632940      0.486131989      1.144151070
H      -0.932033869     -0.180920410      1.535042540
H      -1.139718483      0.169859915     -0.258384590
           6
  t=        73.00000    1    1
C      -0.121310347      0.102603042      0.145432152
N       0.129874050     -0.112414954      1.264932462
H       0.966300149     -0.126607557     -0.572492171
H       0.722951581      0.494938812      1.100078885
H      -0.953793939     -0.205939630      1.659365751
H      -1.095499048      0.177947804     -0.221986454
           6
  t=        73.50000    1    1
C      -0.115115023      0.106408313      0.128598092
N       0.124465675     -0.116399768      1.268343486
H       0.956397840     -0.130921798     -0.543563047
H       0.703129356      0.523784478      1.063830527
H      -0.963350088     -0.228267302      1.787197813
H      -1.054838816      0.185802021     -0.189452960
           6
  t=        74.00000    1    1
C      -0.108157189      0.109573551      0.109190776
N       0.117129902     -0.121757749      1.273718027
H       0.937066648     -0.129871044     -0.511808958
H       0.706512683      0.570417023      1.035341816
H      -0.959566059     -0.247531321      1.914320310
H      -1.023594536      0.194140731     -0.163436986
           6
  t=        74.50000    1    1
C      -0.100040936      0.111983825      0.088064846
N       0.108406933     -0.127971582      1.280766620
H       0.909243998     -0.123763522     -0.478435587
H       0.725676738      0.628276239      1.015403286
H      -0.942518899     -0.263517841      2.037162121
H      -1.007421581      0.203799235     -0.146106423
           6
  t=        75.00000    1    1
C      -0.090617558      0.113597131      0.066025124
N       0.098831264     -0.134536710      1.289163227
H       0.874772721     -0.113176740     -0.445109454
H       0.753555669      0.690648731      1.004542934
H      -0.913043283     -0.276105027      2.152868642
H      -1.009459339      0.215436255     -0.138520904
           6
  t=        75.50000    1    1
C      -0.080288769      0.114469000      0.043743772
N       0.088843471     -0.141111760      1.298632298
H       0.837157740     -0.098784736     -0.414016478
H       0.785345102      0.752492174      1.002859253
H      -0.872451394     -0.284952824      2.259171262
H      -1.028434526      0.229023737     -0.140499161
           6
  t=        76.00000    1    1
C      -0.070257610      0.114733145      0.021888986
N       0.078895334     -0.147441345      1.308950219
H       0.802974143     -0.081214394     -0.388452552
H       0.818655392      0.809564763      1.011185641
H      -0.822252690     -0.289249829      2.353670030
H      -1.058975971      0.243478434     -0.152027842
           6
  t=        76.50000    1    1
C      -0.061411374      0.114630162      0.001258205
N       0.069168340     -0.153322975      1.319819019
H       0.779239007     -0.063077602     -0.372145920
H       0.850565100      0.859963405      1.027628070
H      -0.763989163     -0.289956153      2.435590118
H      -1.095594051      0.258597214     -0.172064713
           6
  t=        77.00000    1    1
C      -0.054585279      0.114520887     -0.017611036
N       0.059641636     -0.158848220      1.331088479
H       0.773121817     -0.046547074     -0.367750765
H       0.879739687      0.904087096      1.048357675
H      -0.699255639     -0.287679591      2.505025990
H      -1.132294382      0.273737519     -0.198534356
           6
  t=        77.50000    1    1
C      -0.048642241      0.116747852     -0.035455635
N       0.048034010     -0.167210147      1.344557927
H       0.783315776     -0.036652763     -0.371468923
H       0.911267215      0.966511656      1.037535259
H      -0.629435588     -0.284463040      2.567898652
H      -1.153317868      0.287869839     -0.221543078
           6
  t=        78.00000    1    1
C      -0.045435217      0.119133162     -0.051004115
N       0.036807713     -0.175111246      1.358181865
H       0.816518169     -0.030201927     -0.389271280
H       0.937385641      1.021539292      1.030189803
H      -0.554846385     -0.278457471      2.616640099
H      -1.169430900      0.301765227     -0.249299377
           6
  t=        78.50000    1    1
C      -0.044564746      0.121636075     -0.064283309
N       0.026018692     -0.182573880      1.371826438
H       0.867323105     -0.026505965     -0.418426365
H       0.957785676      1.069469959      1.025470067
H      -0.476650306     -0.269796885      2.650907874
H      -1.179289688      0.315364987     -0.281161704
           6
  t=        79.00000    1    1
C      -0.045337469      0.124172774     -0.075474285
N       0.015697525     -0.189610235      1.385388401
H       0.927334320     -0.024427474     -0.455139037
H       0.972393669      1.110639184      1.022679305
H      -0.395892970     -0.258711411      2.670510062
H      -1.182059259      0.328593601     -0.316446087
           6
  t=        79.50000    1    1
C      -0.047065688      0.126665007     -0.084776524
N       0.005859740     -0.196217046      1.398776043
H       0.988713048     -0.022990458     -0.495894571
H       0.981229699      1.145331134      1.021265644
H      -0.313537877     -0.245498935      2.675408390
H      -1.177361516      0.341375204     -0.354427639
           6
  t=        80.00000    1    1
C      -0.049209476      0.129062692     -0.092355308
N      -0.003479066     -0.202369859      1.411889474
H       1.045707631     -0.021619267     -0.537942181
H       0.984296547      1.173705025      1.020802362
H      -0.230528279     -0.230549290      2.665890982
H      -1.165149814      0.353621266     -0.394362650
           6
  t=        80.50000    1    1
C      -0.051353725      0.131316279     -0.098244661
N      -0.012384002     -0.208067627      1.424614975
H       1.094890774     -0.019905287     -0.579472942
H       0.981961272      1.196350372      1.020585096
H      -0.147434682     -0.214287631      2.642210112
H      -1.145831398      0.365334269     -0.435622791
           6
  t=        81.00000    1    1
C      -0.053176805      0.133410678     -0.102553271
N      -0.020849379     -0.213258620      1.436830019
H       1.134049130     -0.017764000     -0.619118798
H       0.974130584      1.213209527      1.020317838
H      -0.065133538     -0.197218758      2.605482326
H      -1.120131837      0.376453050     -0.477400107
           6
  t=        81.50000    1    1
C      -0.054418545      0.135330359     -0.105342237
N      -0.028903921     -0.217897060      1.448359045
H       1.162018894     -0.015177659     -0.655916669
H       0.960822734      1.224358748      1.019668384
H       0.015781884     -0.179856644      2.557555492
H      -1.089010980      0.386946440     -0.519006535
           6
  t=        82.00000    1    1
C      -0.054844903      0.137060649     -0.106656280
N      -0.036608211     -0.221939580      1.458950339
H       1.178241981     -0.012161660     -0.689144169
H       0.942045645      1.229864817      1.018322247
H       0.095124337     -0.162671285      2.501462820
H      -1.053676390      0.396805218     -0.559853278
           6
  t=        82.50000    1    1
C      -0.054237310      0.138585017     -0.106528612
N      -0.044081097     -0.225351009      1.468262521
H       1.182556686     -0.008728986     -0.718229972
H       0.917780683      1.229788523      1.015971771
H       0.173504132     -0.146015785      2.441620298
H      -1.015509161      0.406042807     -0.599481318
           6
  t=        83.00000    1    1
C      -0.052394182      0.139884999     -0.104990552
N      -0.051527021     -0.228111251      1.475897825
H       1.175076054     -0.004862834     -0.742694067
H       0.887967472      1.224186657      1.012315699
H       0.252749922     -0.130048925      2.383420890
H      -0.975950274      0.414685042     -0.637562744
           6
  t=        83.50000    1    1
C      -0.049137538      0.140943188     -0.102093411
N      -0.059233037     -0.230221299      1.481522201
H       1.156084619     -0.000492309     -0.762077708
H       0.852523274      1.213153777      1.007059246
H       0.335893687     -0.114740465      2.331699556
H      -0.936364256      0.422757289     -0.673844114
           6
  t=        84.00000    1    1
C      -0.044320804      0.141751070     -0.097945825
N      -0.067482314     -0.231702018      1.485043747
H       1.125900512      0.004499140     -0.775795363
H       0.811435132      1.196941657      0.999884058
H       0.425994529     -0.100083412      2.288433007
H      -0.897926164      0.430275500     -0.707998907
           6
  t=        84.50000    1    1
C      -0.037874686      0.142315698     -0.092684389
N      -0.076394435     -0.232557418      1.486670776
H       1.085089907      0.010194139     -0.783169423
H       0.764738962      1.175858312      0.990456163
H       0.524163277     -0.086479796      2.251592498
H      -0.861512460      0.437222796     -0.739609964
           6
  t=        85.00000    1    1
C      -0.029851267      0.142656619     -0.086417389
N      -0.085837856     -0.232742476      1.486781143
H       1.034797216      0.016570694     -0.783752387
H       0.712411662      1.150046094      0.978567008
H       0.628577587     -0.074846442      2.216581407
H      -0.827629689      0.443537346     -0.768280328
           6
  t=        85.50000    1    1
C      -0.020412433      0.142803317     -0.079237528
N      -0.095498141     -0.232192307      1.485738817
H       0.976733617      0.023472417     -0.777405148
H       0.654466206      1.119588478      0.964175552
H       0.735311165     -0.066264524      2.178879674
H      -0.796517041      0.449120647     -0.793541290
           6
  t=        86.00000    1    1
C      -0.009823084      0.142792929     -0.071218281
N      -0.105006451     -0.230855372      1.483784750
H       0.913322065      0.030581026     -0.764427789
H       0.591036295      1.084621320      0.947411968
H       0.839951845     -0.061594420      2.135602995
H      -0.768289675      0.453857215     -0.814811698
           6
  t=        86.50000    1    1
C       0.001536962      0.142669738     -0.062395473
N      -0.114029250     -0.228711929      1.481032461
H       0.848022852      0.037372240     -0.745829729
H       0.522450474      1.045468502      0.928572002
H       0.938694347     -0.061324427      2.085621351
H      -0.743042968      0.457634164     -0.831398542
           6
  t=        87.00000    1    1
C       0.013149336      0.142482385     -0.052732432
N      -0.122299922     -0.225778227      1.477509108
H       0.785684357      0.043076058     -0.723763080
H       0.449289966      1.002804038      0.908136913
H       1.028673782     -0.065614225      2.029043262
H      -0.720873958      0.460353781     -0.842553467
           6
  t=        87.50000    1    1
C       0.024368134      0.142265481     -0.042084298
N      -0.129618700     -0.222101069      1.473195759
H       0.732501946      0.046708646     -0.701904955
H       0.372406677      0.957818948      0.886884070
H       1.107883350     -0.074390684      1.966668333
H      -0.701908108      0.461973920     -0.847638140
           6
  t=        88.00000    1    1
C       0.034496138      0.142014430     -0.030235223
N      -0.135843424     -0.217755424      1.468060384
H       0.695236142      0.047185130     -0.685156515
H       0.292902910      0.912434684      0.866033591
H       1.174972136     -0.087431975      1.899611921
H      -0.686330872      0.462532580     -0.846211893
           6
  t=        88.50000    1    1
C       0.042946086      0.141654286     -0.017050895
N      -0.140875392     -0.212843738      1.462079825
H       0.679390656      0.043560943     -0.678079086
H       0.212002046      0.869489001      0.847400666
H       1.229047354     -0.104424163      1.829100230
H      -0.674355537      0.462138396     -0.838032240
           6
  t=        89.00000    1    1
C       0.049445591      0.141008910     -0.002695999
N      -0.144644531     -0.207491434      1.455250953
H       0.686970807      0.035392310     -0.682446431
H       0.130739427      0.832732319      0.833469582
H       1.269525345     -0.124995741      1.756371409
H      -0.666169441      0.460953150     -0.823043550
           6
  t=        89.50000    1    1
C       0.054129486      0.139807495      0.012287655
N      -0.147095426     -0.201836383      1.447590732
H       0.715696995      0.022969102     -0.696011044
H       0.049513321      0.806402388      0.827132308
H       1.296030885     -0.148735660      1.682634356
H      -0.661891441      0.459178265     -0.801378604
           6
  t=        90.00000    1    1
C       0.057435861      0.137760987      0.027177165
N      -0.148177020     -0.196012820      1.439126052
H       0.760445621      0.007192310     -0.713868875
H      -0.032222235      0.794229577      0.830890125
H       1.308336106     -0.175194463      1.609058959
H      -0.661549762      0.457039736     -0.773378794
           6
  t=        90.50000    1    1
C       0.059906045      0.134674920      0.041376468
N      -0.147840367     -0.190131472      1.429877944
H       0.815396638     -0.010774768     -0.730876075
H      -0.115718350      0.798164876      0.845844958
H       1.306331008     -0.203866987      1.536782206
H      -0.665088836      0.454772075     -0.739621885
           6
  t=        91.00000    1    1
C       0.062016278      0.130516933      0.054583161
N      -0.146047198     -0.184258561      1.419849057
H       0.875382144     -0.029816233     -0.743143084
H      -0.202130215      0.817575272      0.871372588
H       1.290022900     -0.234162742      1.466926978
H      -0.672395099      0.452607331     -0.700932234
           6
  t=        91.50000    1    1
C       0.064096556      0.125394680      0.066743294
N      -0.142787585     -0.178401023      1.409024975
H       0.936293352     -0.049024760     -0.748331047
H      -0.291733956      0.849440067      0.905880599
H       1.259568329     -0.265381221      1.400641030
H      -0.683307354      0.450772924     -0.658361361
           6
  t=        92.00000    1    1
C       0.066316561      0.119483414      0.077914591
N      -0.138090100     -0.172516215      1.397394524
H       0.995007982     -0.067736236     -0.745413318
H      -0.383653403      0.889334916      0.947815647
H       1.215317043     -0.296696199      1.339243140
H      -0.697552607      0.449523648     -0.613233397
           6
  t=        92.50000    1    1
C       0.068836920      0.112890601      0.088081569
N      -0.131977510     -0.166441065      1.384932827
H       1.049012886     -0.085571673     -0.733667073
H      -0.477148912      0.932144779      0.996800254
H       1.157197951     -0.327487018      1.283873409
H      -0.714882493      0.449429545     -0.566503785
           6
  t=        93.00000    1    1
C       0.071692261      0.105789171      0.097168573
N      -0.124642745     -0.160084446      1.371715415
H       1.096594055     -0.102473106     -0.713358832
H      -0.570100601      0.973349936      1.052763229
H       1.086473553     -0.356732915      1.235866902
H      -0.734697066      0.450606411     -0.519318530
           6
  t=        93.50000    1    1
C       0.074833464      0.098368413      0.105037707
N      -0.116337722     -0.153399204      1.357884633
H       1.136513551     -0.118528806     -0.685012018
H      -0.660231290      1.009319938      1.115447197
H       1.005377415     -0.383633178      1.196851500
H      -0.756184039      0.453063244     -0.472860596
           6
  t=        94.00000    1    1
C       0.078136167      0.090830422      0.111437587
N      -0.107389383     -0.146349351      1.343668224
H       1.167867404     -0.133794759     -0.649194388
H      -0.745226904      1.037041334      1.184433578
H       0.917459084     -0.407937772      1.168780107
H      -0.778279664      0.456713115     -0.428267705
           6
  t=        94.50000    1    1
C       0.081423838      0.083478274      0.115718597
N      -0.098396898     -0.138783421      1.329579510
H       1.189998688     -0.148203947     -0.606543993
H      -0.820872856      1.051681034      1.259824125
H       0.828070507     -0.429943603      1.154074802
H      -0.799466534      0.460905782     -0.386823064
           6
  t=        95.00000    1    1
C       0.084688225      0.076205410      0.118082459
N      -0.089935847     -0.130787959      1.315462331
H       1.201874590     -0.161266859     -0.556928277
H      -0.889560386      1.058402900      1.341245599
H       0.748226926     -0.452856568      1.153048989
H      -0.819240256      0.465665077     -0.348831489
           6
  t=        95.50000    1    1
C       0.087864466      0.069187162      0.118317024
N      -0.082838913     -0.122114392      1.301623058
H       1.202882390     -0.173010963     -0.501021045
H      -0.951189512      1.057100155      1.428037813
H       0.689624108     -0.481919937      1.165944730
H      -0.836441996      0.470827052     -0.314931884
           6
  t=        96.00000    1    1
C       0.090928974      0.062580820      0.116309592
N      -0.077828922     -0.112398753      1.288320802
H       1.192718473     -0.183491752     -0.439840934
H      -1.005963395      1.047757715      1.519483227
H       0.662068374     -0.523816073      1.192854086
H      -0.850047245      0.476214789     -0.285738393
           6
  t=        96.50000    1    1
C       0.093883620      0.056505971      0.112062213
N      -0.075000714     -0.101455552      1.275698177
H       1.171654150     -0.192827490     -0.374897058
H      -1.054250778      1.030390170      1.614770082
H       0.666112974     -0.582268112      1.234700077
H      -0.859216350      0.481653905     -0.261859121
           6
  t=        97.00000    1    1
C       0.096705792      0.051042626      0.105675320
N      -0.073712173     -0.089541641      1.263879995
H       1.140896160     -0.201254211     -0.308273213
H      -1.096375136      1.005010982      1.712870988
H       0.691638077     -0.654300083      1.292265871
H      -0.863365294      0.487007108     -0.243896051
           6
  t=        97.50000    1    1
C       0.099291932      0.046243891      0.097333345
N      -0.073112314     -0.077198484      1.253121275
H       1.102956824     -0.209232518     -0.242589120
H      -1.132482905      0.971675095      1.812474591
H       0.725436450     -0.732570544      1.364296437
H      -0.862243579      0.492229602     -0.232402405
           6
  t=        98.00000    1    1
C       0.101413290      0.042155987      0.087309966
N      -0.072588278     -0.064939379      1.243772468
H       1.061998168     -0.217628914     -0.180829617
H      -1.162585888      0.930580062      1.912053940
H       0.757687241     -0.809916093      1.447630038
H      -0.855972154      0.497408526     -0.227832579
           6
  t=        98.50000    1    1
C       0.102702014      0.038837578      0.075962328
N      -0.071829538     -0.053116816      1.236154646
H       1.023945471     -0.227890847     -0.126003243
H      -1.186708151      0.882168800      2.010051689
H       0.783018522     -0.881341698      1.538451438
H      -0.845014925      0.502752495     -0.230519016
           6
  t=        99.00000    1    1
C       0.102707121      0.036364784      0.063683070
N      -0.070728640     -0.041934277      1.230484116
H       0.995800743     -0.241998767     -0.080597496
H      -1.204991433      0.827144751      2.105079039
H       0.799176230     -0.943932708      1.633180948
H      -0.830101317      0.508544758     -0.240686256
           6
  t=        99.50000    1    1
C       0.101062156      0.034798402      0.050830693
N      -0.069283222     -0.031494136      1.226859462
H       0.983615084     -0.261937038     -0.046002799
H      -1.217710514      0.766398104      2.196028358
H       0.805638808     -0.996221046      1.728825951
H      -0.812155626      0.515109949     -0.258481994
           6
  t=       100.00000    1    1
C       0.097703836      0.034114646      0.037695204
N      -0.067533200     -0.021838902      1.225276514
H       0.989825099     -0.288757539     -0.022353660
H      -1.225244665      0.700910254      2.282091716
H       0.802722604     -1.037624313      1.823018543
H      -0.792243395      0.522810011     -0.283991026
