           6
  t=         0.00000    9    3
C      -0.008633897     -0.003456194      0.043014508
N      -0.000475058     -0.005429538      1.325093090
H       0.898711415     -0.043902632     -0.560612020
H       0.865055210      0.108224921      1.707706740
H      -0.853608176     -0.040491397      1.821584972
H      -0.800755485      0.092761315     -0.621789282
           6
  t=         0.50000    9    3
C      -0.011860532     -0.005769253      0.045667537
N       0.002777367     -0.002804344      1.321690692
H       0.886407742     -0.036087382     -0.556799289
H       0.873556660      0.097290633      1.739107272
H      -0.868071605     -0.051011485      1.818284864
H      -0.789260986      0.097465597     -0.638016823
           6
  t=         1.00000    9    3
C      -0.014753333     -0.008194362      0.044852923
N       0.005744300     -0.000215056      1.320692880
H       0.875083964     -0.028369566     -0.551322578
H       0.884039968      0.087071078      1.774963318
H      -0.880627347     -0.061277893      1.816770448
H      -0.782644090      0.103131928     -0.654271093
           6
  t=         1.50000    9    3
C      -0.017321688     -0.010729692      0.040584964
N       0.008431654      0.002354503      1.322286952
H       0.865645831     -0.020861175     -0.544656217
H       0.894180917      0.077320085      1.813222517
H      -0.889822706     -0.071205986      1.816274587
H      -0.780909423      0.109787341     -0.670030869
           6
  t=         2.00000    9    3
C      -0.019598169     -0.013370270      0.032999921
N       0.010835915      0.004910430      1.326568715
H       0.859172251     -0.013625157     -0.537431862
H       0.902064508      0.067856838      1.851718721
H      -0.894512257     -0.080650917      1.816076072
H      -0.783929662      0.117386778     -0.684730748
           6
  t=         2.50000    9    3
C      -0.021637471     -0.016110837      0.022337996
N       0.012962702      0.007449026      1.333540876
H       0.856793294     -0.006655581     -0.530319842
H       0.906273727      0.058574259      1.888355593
H      -0.894054232     -0.089421797      1.815510050
H      -0.791486460      0.125829300     -0.697836892
           6
  t=         3.00000    9    3
C      -0.023513731     -0.018950372      0.008946551
N       0.014853723      0.009958355      1.343051453
H       0.859393417      0.000201460     -0.524026180
H       0.905864265      0.049405074      1.921597132
H      -0.888558862     -0.097282210      1.814419077
H      -0.803106485      0.134945549     -0.708974111
           6
  t=         3.50000    9    3
C      -0.025306947     -0.021894869     -0.006725178
N       0.016588750      0.012420814      1.354771311
H       0.867410701      0.007323241     -0.519278592
H       0.900358030      0.040255349      1.950702876
H      -0.878924809     -0.103942644      1.813369931
H      -0.818006949      0.144478591     -0.718016857
           6
  t=         4.00000    9    3
C      -0.027102437     -0.024964895     -0.024140117
N       0.018308241      0.014816470      1.368260942
H       0.880885471      0.015386440     -0.516696598
H       0.889610759      0.030930086      1.975383861
H      -0.866869595     -0.109019190      1.813221997
H      -0.835302089      0.154084716     -0.725204210
           6
  t=         4.50000    8    2
C      -0.029034749     -0.028215376     -0.042565501
N       0.020228910      0.017123724      1.382956912
H       0.899827026      0.025585886     -0.516958065
H       0.873824345      0.021012590      1.995625768
H      -0.854911272     -0.111906293      1.814728593
H      -0.854094097      0.163334300     -0.731493653
           6
  t=         5.00000    8    2
C      -0.031582052     -0.031873268     -0.062539669
N       0.022769430      0.019636186      1.399343917
H       0.927447293      0.037136605     -0.521896804
H       0.851885517      0.010767468      2.013996276
H      -0.844665600     -0.115494401      1.818813632
H      -0.874989561      0.174260934     -0.738867517
           6
  t=         5.50000    5    2
C      -0.033971833     -0.035339148     -0.083095734
N       0.025277073      0.022146030      1.416160085
H       0.957164522      0.045625463     -0.528752756
H       0.828032828      0.002830663      2.029046427
H      -0.836400316     -0.121717835      1.825980921
H      -0.895506536      0.186326558     -0.743120463
           6
  t=         6.00000    5    2
C      -0.036748549     -0.038831430     -0.103748684
N       0.028201970      0.024703882      1.433004128
H       0.990475868      0.053943156     -0.536587022
H       0.803746533     -0.004229272      2.041922892
H      -0.834017807     -0.129330601      1.835326192
H      -0.914491523      0.198723111     -0.745633108
           6
  t=         6.50000    5    2
C      -0.038933349     -0.042109569     -0.124960764
N       0.030772402      0.027183569      1.449932429
H       1.020350150      0.060180308     -0.544413225
H       0.782606976     -0.009580619      2.053666232
H      -0.834839450     -0.138108584      1.847766064
H      -0.932104842      0.211193136     -0.744628525
           6
  t=         7.00000    8    2
C      -0.040393920     -0.045165491     -0.146557638
N       0.032765626      0.029551112      1.466723514
H       1.044918909      0.064571667     -0.551908014
H       0.767414184     -0.013406145      2.065805264
H      -0.838622391     -0.147517418      1.862749529
H      -0.948001436      0.223526240     -0.740406438
           6
  t=         7.50000    9    3
C      -0.041591140     -0.048135826     -0.168203768
N       0.034420715      0.031901169      1.483074054
H       1.065502157      0.068388666     -0.557012447
H       0.760736707     -0.016534470      2.079333159
H      -0.847802752     -0.157387579      1.877515237
H      -0.961467916      0.235421733     -0.733038244
           6
  t=         8.00000    9    3
C      -0.042347331     -0.050531268     -0.187053913
N       0.035410474      0.033970141      1.496852295
H       1.079207703      0.070483898     -0.559190694
H       0.763780979     -0.018971129      2.093316167
H      -0.859728422     -0.166713323      1.889620926
H      -0.971040109      0.244863350     -0.723942325
           6
  t=         8.50000    9    3
C      -0.042968624     -0.052532847     -0.205913212
N       0.036052317      0.036274562      1.510105372
H       1.089734043      0.069935083     -0.557531668
H       0.775875620     -0.022295010      2.109545453
H      -0.875870640     -0.178202488      1.899577648
H      -0.979039041      0.252038597     -0.711375182
           6
  t=         9.00000    9    3
C      -0.043097721     -0.053950967     -0.224442587
N       0.036072852      0.038758097      1.522744060
H       1.095655910      0.065632974     -0.553118627
H       0.795516875     -0.026699343      2.126809009
H      -0.892797877     -0.191485246      1.907508095
H      -0.986422912      0.256405344     -0.695961849
           6
  t=         9.50000    8    2
C      -0.042437506     -0.054678445     -0.242242300
N       0.035295321      0.041321117      1.534718836
H       1.095814769      0.057071252     -0.547409446
H       0.820374516     -0.032155176      2.143322614
H      -0.907333675     -0.205791917      1.913632418
H      -0.993961209      0.257779369     -0.678751932
           6
  t=        10.00000    8    2
C      -0.040810955     -0.055258336     -0.263413585
N       0.033655074      0.044356342      1.549138895
H       1.088676736      0.044584422     -0.539414320
H       0.854010681     -0.038802991      2.160528498
H      -0.921733747     -0.222449196      1.918059350
H      -1.002635944      0.258302696     -0.656653592
           6
  t=        10.50000    8    2
C      -0.038708966     -0.056083723     -0.284879279
N       0.031777266      0.047249001      1.564201968
H       1.075245849      0.032988521     -0.529502044
H       0.888317270     -0.044409300      2.173371337
H      -0.934054136     -0.237318069      1.918221942
H      -1.010128128      0.260009107     -0.633273817
           6
  t=        11.00000    8    2
C      -0.036179049     -0.057141845     -0.306574203
N       0.029769054      0.049998329      1.579980065
H       1.056611680      0.022214118     -0.518120546
H       0.920811992     -0.049008054      2.180671407
H      -0.943335650     -0.250377941      1.914192586
H      -1.016927417      0.262840087     -0.608833923
           6
  t=        11.50000    8    2
C      -0.033322320     -0.058419513     -0.328406984
N       0.027710011      0.052599071      1.596483040
H       1.034418209      0.012258617     -0.505924507
H       0.949554802     -0.052633374      2.181794396
H      -0.948841671     -0.261608572      1.906297479
H      -1.023376030      0.266728101     -0.583596006
           6
  t=        12.00000    8    2
C      -0.030308483     -0.059904696     -0.350273551
N       0.025665537      0.055047207      1.613672828
H       1.010960890      0.003185292     -0.493690389
H       0.973093626     -0.055329297      2.176555490
H      -0.950138581     -0.271035600      1.895058028
H      -1.029639004      0.271592157     -0.557830470
           6
  t=        12.50000    8    2
C      -0.027360267     -0.061588382     -0.372059447
N       0.023691224      0.057339847      1.631470737
H       0.989108988     -0.004884801     -0.482277447
H       0.990397548     -0.057139633      2.165122003
H      -0.947124217     -0.278737721      1.881170219
H      -1.035777261      0.277366529     -0.531810800
           6
  t=        13.00000    8    2
C      -0.024441961     -0.063516133     -0.393426931
N       0.021759332      0.059371738      1.649624319
H       0.971531146     -0.011583894     -0.473881497
H       1.000585373     -0.057689323      2.148071825
H      -0.939785722     -0.284201799      1.866180349
H      -1.043630895      0.284800192     -0.505979198
           6
  t=        13.50000    8    2
C      -0.022253726     -0.065587083     -0.414399315
N       0.020012405      0.061271433      1.668096173
H       0.962508302     -0.017060166     -0.467030727
H       1.004075069     -0.057498555      2.125315610
H      -0.929291701     -0.288430917      1.849423076
H      -1.050374066      0.292577444     -0.480255537
           6
  t=        14.00000    8    2
C      -0.021025309     -0.067776673     -0.434927600
N       0.018512592      0.063073875      1.686761811
H       0.964047303     -0.021226114     -0.461887162
H       1.001112684     -0.056699074      2.097713784
H      -0.916714555     -0.291936030      1.831658133
H      -1.055315218      0.300475557     -0.454951710
           6
  t=        14.50000    8    2
C      -0.020825496     -0.070061315     -0.454977244
N       0.017304589      0.064827666      1.705484584
H       0.976328667     -0.024044691     -0.458422470
H       0.992477694     -0.055488719      2.066342816
H      -0.903400953     -0.295356111      1.813616017
H      -1.057869701      0.308338113     -0.430415648
           6
  t=        15.00000    8    2
C      -0.021550513     -0.072419054     -0.474518653
N       0.016394463      0.066592874      1.724122918
H       0.997639511     -0.025534422     -0.456548001
H       0.979620632     -0.054149271      2.032450515
H      -0.890823838     -0.299406480      1.795922433
H      -1.057622096      0.316084749     -0.406994802
           6
  t=        15.50000    8    2
C      -0.022972077     -0.074831038     -0.493516410
N       0.015725703      0.068433564      1.742537323
H       1.024974639     -0.025752384     -0.456226235
H       0.964753591     -0.053049204      1.997365841
H      -0.880346306     -0.304772970      1.779042181
H      -1.054349190      0.323712233     -0.385004031
           6
  t=        16.00000    8    2
C      -0.024809497     -0.077282045     -0.511918330
N       0.015165015      0.070403946      1.760593949
H       1.054896602     -0.024770353     -0.457513862
H       0.950778789     -0.052610744      1.962352704
H      -0.872957532     -0.311962628      1.763275330
H      -1.048016650      0.331287156     -0.364712221
           6
  t=        16.50000    8    2
C      -0.026788170     -0.079758357     -0.529633321
N       0.014517401      0.072525183      1.778151284
H       1.084228286     -0.022653360     -0.460575361
H       0.940880990     -0.053201132      1.928467811
H      -0.869077682     -0.321129559      1.748868206
H      -1.038772258      0.338938499     -0.346376345
           6
  t=        17.00000    7    1
C      -0.028670962     -0.082238723     -0.546482058
N       0.013584364      0.074758682      1.795000076
H       1.110422640     -0.019442870     -0.465792940
H       0.937686999     -0.054982876      1.896708427
H      -0.868511850     -0.331979046      1.736412428
H      -1.026956197      0.346858723     -0.330430843
           6
  t=        17.50000    7    1
C      -0.030460969     -0.084918898     -0.564047365
N       0.012102785      0.077491098      1.812594853
H       1.133803289     -0.014917694     -0.474549743
H       0.942330177     -0.059889872      1.865973756
H      -0.870005837     -0.346795962      1.726632548
H      -1.011586909      0.356003827     -0.316479540
           6
  t=        18.00000    7    1
C      -0.031854869     -0.087576251     -0.581108412
N       0.010092957      0.080709922      1.829717644
H       1.150472032     -0.009683372     -0.485843066
H       0.954433575     -0.069203367      1.838205696
H      -0.871783362     -0.365466653      1.719936843
H      -0.994059081      0.365670006     -0.305488707
           6
  t=        18.50000    7    1
C      -0.032739535     -0.090218555     -0.597711807
N       0.007622595      0.084351308      1.846466711
H       1.159519344     -0.003879208     -0.499471685
H       0.971798133     -0.082617677      1.812507517
H      -0.872546346     -0.387355464      1.715855040
H      -0.974850075      0.376034874     -0.297102881
           6
  t=        19.00000    7    1
C      -0.033038625     -0.092846084     -0.613887244
N       0.004839415      0.088332759      1.862881090
H       1.160497551      0.002344958     -0.515307866
H       0.991198675     -0.099628850      1.788482554
H      -0.871068633     -0.411829304      1.714200312
H      -0.954474595      0.387260714     -0.291055164
           6
  t=        19.50000    7    1
C      -0.032709975     -0.095454289     -0.629661871
N       0.001911431      0.092560714      1.878963735
H       1.153360284      0.008827970     -0.533236821
H       1.009338688     -0.119588262      1.766123602
H      -0.866331439     -0.438257793      1.714906345
H      -0.933445027      0.399475485     -0.287104575
           6
  t=        20.00000    7    1
C      -0.031747379     -0.098034038     -0.645061899
N      -0.001011928      0.096936567      1.894694675
H       1.138453949      0.015402831     -0.553136667
H       1.023450608     -0.141769118      1.745681293
H      -0.857587986     -0.466014107      1.717968971
H      -0.912237116      0.412753924     -0.285029888
           6
  t=        20.50000    7    1
C      -0.030186276     -0.100571531     -0.660111468
N      -0.003814473      0.101361105      1.910041201
H       1.116558284      0.021908521     -0.574871002
H       1.031518301     -0.165417035      1.727538876
H      -0.844383900     -0.494481477      1.723421761
H      -0.891261217      0.427100062     -0.284642471
           6
  t=        21.00000    7    1
C      -0.028112315     -0.103048900     -0.674831132
N      -0.006412821      0.105737497      1.924965108
H       1.088969257      0.028210272     -0.598287090
H       1.032269169     -0.189779275      1.712121734
H      -0.826555511     -0.523065572      1.731322585
H      -0.870843125      0.442434266     -0.285802695
           6
  t=        21.50000    7    1
C      -0.025670864     -0.105446179     -0.689236683
N      -0.008750433      0.109973578      1.939427510
H       1.057606072      0.034229714     -0.623219650
H       1.025081358     -0.214120837      1.699841270
H      -0.804219497     -0.551212386      1.741743575
H      -0.851218245      0.458588736     -0.288431063
           6
  t=        22.00000    4    1
C      -0.023073509     -0.107744804     -0.703338263
N      -0.010791745      0.113983758      1.953392082
H       1.025096385      0.039982336     -0.649504102
H       1.009891756     -0.237734540      1.691060903
H      -0.777761933     -0.578427663      1.754763862
H      -0.832539822      0.475314714     -0.292509264
           6
  t=        22.50000    4    1
C      -0.020557998     -0.109971741     -0.717350879
N      -0.012482589      0.117449500      1.966918362
H       0.994078310      0.045810389     -0.677519337
H       0.987172156     -0.258134257      1.686906144
H      -0.748614432     -0.602758324      1.771698150
H      -0.814407976      0.492577675     -0.298365764
           6
  t=        23.00000    4    1
C      -0.018476074     -0.112082743     -0.731058475
N      -0.013860247      0.120561517      1.979897473
H       0.969014669      0.051784109     -0.706683603
H       0.957829491     -0.276629947      1.686688633
H      -0.716874579     -0.625528675      1.791351038
H      -0.797388706      0.509764997     -0.305758335
           6
  t=        23.50000    4    1
C      -0.017125033     -0.114078573     -0.744446348
N      -0.014946914      0.123285345      1.992322204
H       0.953468258      0.058233868     -0.737050619
H       0.923314526     -0.292823724      1.690411537
H      -0.683645754     -0.646645663      1.813761234
H      -0.781543996      0.526543314     -0.314750015
           6
  t=        24.00000    4    1
C      -0.016702926     -0.115954443     -0.757490843
N      -0.015792201      0.125609386      2.004200207
H       0.949829066      0.065390820     -0.768801071
H       0.885622688     -0.306504674      1.697878647
H      -0.650197394     -0.666150354      1.838967735
H      -0.766942303      0.542615748     -0.325390904
           6
  t=        24.50000    4    1
C      -0.017240317     -0.117686857     -0.770165984
N      -0.016478945      0.127548762      2.015556696
H       0.958509727      0.073206155     -0.802174629
H       0.847303249     -0.317720578      1.708647519
H      -0.617893406     -0.684198946      1.867017656
H      -0.753666771      0.557745201     -0.337705579
           6
  t=        25.00000    4    1
C      -0.018588488     -0.119228302     -0.782454245
N      -0.017124893      0.129146232      2.026434933
H       0.977805934      0.081274628     -0.837342240
H       0.811383047     -0.326833010      1.722009544
H      -0.588092637     -0.701018630      1.897975826
H      -0.741815835      0.571765882     -0.351689141
           6
  t=        25.50000    4    1
C      -0.020472639     -0.120514530     -0.794354912
N      -0.017874652      0.130466143      2.036892496
H       1.004521498      0.088918921     -0.874298230
H       0.781134302     -0.334502410      1.737033802
H      -0.562029147     -0.716836814      1.931927415
H      -0.731494208      0.584583882     -0.367309987
           6
  t=        26.00000    4    1
C      -0.022572963     -0.121479556     -0.805885458
N      -0.018876877      0.131577534      2.046991007
H       1.034923756      0.095372638     -0.912833529
H       0.759633998     -0.341539450      1.752711488
H      -0.540689776     -0.731793309      1.968970507
H      -0.722801808      0.596171164     -0.384514623
           6
  t=        26.50000    4    1
C      -0.024590373     -0.122068944     -0.817076820
N      -0.020248420      0.132526763      2.056780574
H       1.065518417      0.099946475     -0.952582410
H       0.749163180     -0.348608407      1.768190772
H      -0.524712434     -0.745855121      2.009193075
H      -0.715825090      0.606556035     -0.403232781
           6
  t=        27.00000    4    1
C      -0.026280087     -0.122246129     -0.827966550
N      -0.022038711      0.133309540      2.066285454
H       1.093441181      0.102115693     -0.993095541
H       0.750653714     -0.355891671      1.783011622
H      -0.514328065     -0.758762446      2.052635450
H      -0.710628427      0.615810060     -0.423384005
           6
  t=        27.50000    4    1
C      -0.027459141     -0.121992655     -0.838593044
N      -0.024213669      0.133858311      2.075499812
H       1.116541667      0.101538351     -1.033901857
H       0.763463402     -0.362919039      1.797209479
H      -0.509358686     -0.770023641      2.099246069
H      -0.707249309      0.624032196     -0.444884999
           6
  t=        28.00000    4    1
C      -0.028000679     -0.121304966     -0.848991754
N      -0.026668611      0.134054493      2.084396613
H       1.133308786      0.098034503     -1.074548107
H       0.785610995     -0.368686006      1.811229887
H      -0.509271830     -0.778966626      2.148845679
H      -0.705692794      0.631331093     -0.467657516
           6
  t=        28.50000    4    1
C      -0.027824466     -0.120190274     -0.859193207
N      -0.029260625      0.133758117      2.092943661
H       1.142751594      0.091553974     -1.114619314
H       0.814319577     -0.371974597      1.825725909
H      -0.513272800     -0.784829866      2.201110686
H      -0.705926741      0.637808082     -0.491635206
           6
  t=        29.00000    4    1
C      -0.026888494     -0.118662875     -0.869222084
N      -0.031841931      0.132838600      2.101117454
H       1.144293639      0.082147237     -1.153748819
H       0.846586261     -0.371677372      1.841362413
H      -0.520409587     -0.786865994      2.255580495
H      -0.707877321      0.643542450     -0.516768597
           6
  t=        29.50000    4    1
C      -0.025183603     -0.116741462     -0.879096703
N      -0.034282120      0.131195397      2.108909991
H       1.137703781      0.069944389     -1.191626029
H       0.879589424     -0.366992990      1.858697648
H      -0.529669818     -0.784432991      2.311684994
H      -0.711425148      0.648580330     -0.543027101
           6
  t=        30.00000    4    1
C      -0.022731460     -0.114447569     -0.888828404
N      -0.036477742      0.128766762      2.116329133
H       1.123069125      0.055142489     -1.228008526
H       0.910901263     -0.357483027      1.878141379
H      -0.540059164     -0.777058670      2.368784364
H      -0.716403231      0.652928381     -0.570397330
           6
  t=        30.50000    4    1
C      -0.019585710     -0.111805026     -0.898420288
N      -0.038353379      0.125530178      2.123395331
H       1.100809046      0.037998861     -1.262744623
H       0.938560905     -0.343042394      1.899958468
H      -0.550658857     -0.764475535      2.426213212
H      -0.722598005      0.656553290     -0.598877622
           6
  t=        31.00000    4    1
C      -0.015835799     -0.108840150     -0.907864883
N      -0.039858951      0.121498616      2.130137187
H       1.071725747      0.018826499     -1.295811762
H       0.961075698     -0.323836935      1.924289703
H      -0.560664236     -0.746630202      2.483323055
H      -0.729754462      0.659387643     -0.628469243
           6
  t=        31.50000    4    1
C      -0.011612512     -0.105582181     -0.917140267
N      -0.040966610      0.116715416      2.136587207
H       1.037080448     -0.002013634     -1.327374719
H       0.977400696     -0.300240491      1.951174515
H      -0.569407912     -0.723673906      2.539520243
H      -0.737585987      0.661341525     -0.659165858
           6
  t=        32.00000    4    1
C      -0.007093100     -0.102063313     -0.926204722
N      -0.041668894      0.111249027      2.142778537
H       0.998670420     -0.024130439     -1.357862098
H       0.986924225     -0.272783786      1.980568459
H      -0.576371757     -0.695939148      2.594295785
H      -0.745789469      0.662319368     -0.690942699
           6
  t=        32.50000    4    1
C      -0.002501697     -0.098317352     -0.934991415
N      -0.041979329      0.105188346      2.148742586
H       0.958853602     -0.047139017     -1.388042286
H       0.989479815     -0.242118853      2.012355426
H      -0.581191811     -0.663909663      2.647248599
H      -0.754063698      0.662239347     -0.723746391
           6
  t=        33.00000    4    1
C       0.001902446     -0.094376763     -0.943406710
N      -0.041935643      0.098637941      2.154507418
H       0.920433480     -0.070718342     -1.419054415
H       0.985387353     -0.208990799      2.046358318
H      -0.583656336     -0.628181431      2.698100325
H      -0.762132698      0.661055218     -0.757487145
           6
  t=        33.50000    4    1
C       0.005856893     -0.090268843     -0.951338699
N      -0.041605376      0.091712941      2.160096653
H       0.886306405     -0.094677614     -1.452314823
H       0.975522170     -0.174210311      2.082352886
H      -0.583698595     -0.589419485      2.746700313
H      -0.769771688      0.658777248     -0.792034395
           6
  t=        34.00000    4    1
C       0.009149086     -0.086013933     -0.958681958
N      -0.041092215      0.084532787      2.165528398
H       0.858857732     -0.118992693     -1.489225704
H       0.961388249     -0.138613821      2.120092768
H      -0.581383797     -0.548312208      2.793018889
H      -0.776833264      0.655488765     -0.827216761
           6
  t=        34.50000    4    1
C       0.011674010     -0.081629151     -0.965375925
N      -0.040538917      0.077213045      2.170813724
H       0.839297818     -0.143765297     -1.530715471
H       0.945138598     -0.102997041      2.159352385
H      -0.576890238     -0.505527073      2.837127557
H      -0.783268556      0.651352787     -0.862826684
           6
  t=        35.00000    4    1
C       0.013464856     -0.077137414     -0.971439730
N      -0.040119673      0.069855199      2.175954833
H       0.827306210     -0.169101713     -1.576815568
H       0.929444880     -0.068014752      2.199984208
H      -0.570486099     -0.461673665      2.879166814
H      -0.789135535      0.646602762     -0.898628494
           6
  t=        35.50000    4    1
C       0.014675039     -0.072575807     -0.976981467
N      -0.040013834      0.062535868      2.180944764
H       0.821236003     -0.194982027     -1.626539065
H       0.917104876     -0.034063201      2.241963649
H      -0.562502307     -0.417276791      2.919302975
H      -0.794588860      0.641516853     -0.934367087
           6
  t=        36.00000    4    1
C       0.015522835     -0.067996607     -0.982176303
N      -0.040360429      0.055300098      2.185772177
H       0.818739633     -0.221204203     -1.678132660
H       0.910383038     -0.001204540      2.285369092
H      -0.553304604     -0.372764393      2.957681050
H      -0.799846956      0.636379674     -0.969775898
           6
  t=        36.50000    4    1
C       0.016231624     -0.063460658     -0.987228666
N      -0.041209256      0.048163604      2.190434162
H       0.817430830     -0.247418418     -1.729522303
H       0.910302152      0.030794104      2.330256869
H      -0.543263769     -0.328464770      2.994377626
H      -0.805143382      0.631442916     -1.004587385
           6
  t=        37.00000    4    1
C       0.016989897     -0.059027543     -0.992338194
N      -0.042497353      0.041125114      2.194954011
H       0.815306753     -0.273204688     -1.778712432
H       0.916289651      0.062288639      2.376466059
H      -0.532727769     -0.284612928      3.029356363
H      -0.810673908      0.626892832     -1.038546433
           6
  t=        37.50000    4    1
C       0.017935818     -0.054746200     -0.997678550
N      -0.044068807      0.034180749      2.199393189
H       0.810890173     -0.298148640     -1.824025909
H       0.926430234      0.093553586      2.423481915
H      -0.521999488     -0.241355099      3.062443436
H      -0.816554532      0.622823358     -1.071427814
           6
  t=        38.00000    4    1
C       0.019157998     -0.050647906     -1.003388105
N      -0.045724613      0.027333052      2.203850355
H       0.803199767     -0.321896426     -1.864189938
H       0.938148440      0.124657529      2.470440584
H      -0.511327423     -0.198760238      3.093321061
H      -0.822800067      0.619218072     -1.103045960
           6
  t=        38.50000    4    1
C       0.020703195     -0.046742560     -1.009566970
N      -0.047276199      0.020592105      2.208446112
H       0.791655986     -0.344182512     -1.898331444
H       0.948936907      0.155456890      2.516270395
H      -0.500895616     -0.156837821      3.121558689
H      -0.829316421      0.615942285     -1.133255410
           6
  t=        39.00000    4    1
C       0.022594288     -0.043002361     -1.016174924
N      -0.048665416      0.013941716      2.213239587
H       0.775896877     -0.364788968     -1.926395109
H       0.957384062      0.185712366      2.560215548
H      -0.490321791     -0.115296256      3.146835957
H      -0.835792698      0.612619758     -1.162335771
           6
  t=        39.50000    4    1
C       0.024836136     -0.039360217     -1.023491659
N      -0.049665371      0.007362110      2.218417488
H       0.755519228     -0.383783914     -1.947087294
H       0.961800127      0.215323927      2.601002554
H      -0.480957257     -0.073972473      3.169222812
H      -0.841994966      0.608731433     -1.189641051
           6
  t=        40.00000    4    1
C       0.027385436     -0.035806428     -1.031557143
N      -0.050192302      0.000900045      2.224089081
H       0.730763089     -0.401074621     -1.960189666
H       0.961328247      0.243851168      2.637637638
H      -0.473123836     -0.033090764      3.188226285
H      -0.847632830      0.604084150     -1.214945143
           6
  t=        40.50000    4    1
C       0.030184782     -0.032328225     -1.040389348
N      -0.050198054     -0.005395508      2.230345882
H       0.702062790     -0.416652983     -1.965731148
H       0.955600527      0.270867017      2.669310522
H      -0.467134220      0.007080092      3.203404406
H      -0.852445578      0.598533186     -1.238024447
           6
  t=        41.00000    4    1
C       0.033165051     -0.028909430     -1.049980934
N      -0.049662050     -0.011475897      2.237258381
H       0.670046953     -0.430620281     -1.964016787
H       0.944636668      0.295983199      2.695397627
H      -0.463302686      0.046237804      3.214410731
H      -0.856230157      0.592001761     -1.258670691
           6
  t=        41.50000    4    1
C       0.036245596     -0.025528132     -1.060293294
N      -0.048585062     -0.017295016      2.244874472
H       0.635558500     -0.443229611     -1.955688094
H       0.928763463      0.318866160      2.715455364
H      -0.461951632      0.084062613      3.221024491
H      -0.858862854      0.584494774     -1.276703170
           6
  t=        42.00000    4    1
C       0.039333289     -0.022151857     -1.071248502
N      -0.046985433     -0.022811626      2.253218781
H       0.599683564     -0.454950434     -1.941808659
H       0.908563521      0.339251373      2.729215230
H      -0.463413362      0.120235859      3.223165611
H      -0.860316437      0.576105242     -1.291979697
           6
  t=        42.50000    4    1
C       0.042321621     -0.018730688     -1.082721154
N      -0.044898052     -0.027991986      2.262292270
H       0.563773572     -0.466551213     -1.923951869
H       0.884858005      0.356963024      2.736588682
H      -0.468027504      0.154457279      3.220896844
H      -0.860670900      0.567014533     -1.304407657
           6
  t=        43.00000    4    1
C       0.045092593     -0.015190821     -1.094534529
N      -0.042375767     -0.032813164      2.272071762
H       0.529427649     -0.479174334     -1.904238520
H       0.858714954      0.371944647      2.737685789
H      -0.476130240      0.186460740      3.214412616
H      -0.860117945      0.557490239     -1.313952892
           6
  t=        43.50000    4    1
C       0.047525757     -0.011432571     -1.106469089
N      -0.039493007     -0.037267216      2.282509415
H       0.498385023     -0.494351163     -1.885229825
H       0.831478094      0.384305091      2.732846900
H      -0.488033258      0.216026597      3.204015651
H      -0.858960531      0.547877213     -1.320646525
           6
  t=        44.00000    4    1
C       0.049517913     -0.007340898     -1.118292376
N      -0.036350200     -0.041365944      2.293532734
H       0.472284552     -0.513862718     -1.869569618
H       0.804796626      0.394377203      2.722677437
H      -0.503992541      0.242989291      3.190082955
H      -0.857606558      0.538583389     -1.324587721
           6
  t=        44.50000    4    1
C       0.051011576     -0.002814603     -1.129811627
N      -0.033077221     -0.045145209      2.305046615
H       0.452308905     -0.539368074     -1.859362061
H       0.780627770      0.402776014      2.708064345
H      -0.524163333      0.267239250      3.173022442
H      -0.856551730      0.530055699     -1.325940970
           6
  t=        45.00000    4    1
C       0.052020505      0.002190359     -1.140930723
N      -0.029830876     -0.048666042      2.316939538
H       0.438849538     -0.571856243     -1.855506103
H       0.761149106      0.410417811      2.690136998
H      -0.548547470      0.288719243      3.153227459
H      -0.856348298      0.522747661     -1.324925018
           6
  t=        45.50000    4    1
C       0.052634570      0.007626141     -1.151677653
N      -0.026781198     -0.052008503      2.329095891
H       0.431395466     -0.611189079     -1.857389906
H       0.748514373      0.418441487      2.670137392
H      -0.576939623      0.307417563      3.131037037
H      -0.857551964      0.517076026     -1.321793109
           6
  t=        46.00000    4    1
C       0.052996377      0.013351975     -1.162182620
N      -0.024083166     -0.055254866      2.341413521
H       0.428734830     -0.656037867     -1.863179359
H       0.744420792      0.427981387      2.649201569
H      -0.608887287      0.323361289      3.106712245
H      -0.860645189      0.513369882     -1.316806813
           6
  t=        46.50000    4    1
C       0.053261328      0.019168951     -1.172623504
N      -0.021839699     -0.058464604      2.353820094
H       0.429338889     -0.704246755     -1.870495583
H       0.749585714      0.439822484      2.628134922
H      -0.643681451      0.336612984      3.080435129
H      -0.865945996      0.511820573     -1.310209436
           6
  t=        47.00000    4    1
C       0.053561238      0.024867760     -1.183173295
N      -0.020073348     -0.061652588      2.366278610
H       0.431713058     -0.753365706     -1.877061200
H       0.763383537      0.454095963      2.607317544
H      -0.680386456      0.347271479      3.052327981
H      -0.873526012      0.512446899     -1.302206865
           6
  t=        47.50000    4    1
C       0.053983445      0.030265794     -1.193969965
N      -0.018724748     -0.064784556      2.378777845
H       0.434597538     -0.801080778     -1.881065554
H       0.783891960      0.470212835      2.586806943
H      -0.717907719      0.355474344      3.022484844
H      -0.883162473      0.515084547     -1.292962574
           6
  t=        48.00000    4    1
C       0.054566240      0.035224698     -1.205107903
N      -0.017678909     -0.067792521      2.391314831
H       0.437026961     -0.845441231     -1.881258039
H       0.808345934      0.487076721      2.566551515
H      -0.755080457      0.361398256      2.991002612
H      -0.894343366      0.519405215     -1.282607328
           6
  t=        48.50000    4    1
C       0.055305491      0.039652049     -1.216641437
N      -0.016802251     -0.070599090      2.403880706
H       0.438309139     -0.884921649     -1.876888230
H       0.833742567      0.503424466      2.546565532
H      -0.790760231      0.365255388      2.958003680
H      -0.906324882      0.524959619     -1.271258232
           6
  t=        49.00000    4    1
C       0.056166585      0.043494632     -1.228592343
N      -0.015971908     -0.073137455      2.416455296
H       0.437975109     -0.918396056     -1.867596909
H       0.857324863      0.518109755      2.526993375
H      -0.823899759      0.367286716      2.923647509
H      -0.918223331      0.531232486     -1.259038736
           6
  t=        49.50000    4    1
C       0.057097116      0.046729444     -1.240957297
N      -0.015090275     -0.075361521      2.429008629
H       0.435729438     -0.945084340     -1.853313569
H       0.876839026      0.530250997      2.508087143
H      -0.853604378      0.367754200      2.888132147
H      -0.929116354      0.537696758     -1.246092660
           6
  t=        50.00000    4    1
C       0.058037593      0.049356046     -1.253713823
N      -0.014087696     -0.077247857      2.441505269
H       0.431412490     -0.964505251     -1.834180040
H       0.890606093      0.539265450      2.490151621
H      -0.879166504      0.366933385      2.851688670
H      -0.938132368      0.543858066     -1.232589261
           6
  t=        50.50000    4    1
C       0.058928976      0.051391926     -1.266824566
N      -0.012919286     -0.078793522      2.453908671
H       0.424977668     -0.976452285     -1.810502193
H       0.897495842      0.544845146      2.473492653
H      -0.900083921      0.365106845      2.814571584
H      -0.944517472      0.549286205     -1.218720038
           6
  t=        51.00000    4    1
C       0.059716995      0.052871448     -1.280240139
N      -0.011560642     -0.080012926      2.466184559
H       0.416482871     -0.981000009     -1.782724217
H       0.896874990      0.546919563      2.458380503
H      -0.916067640      0.362557779      2.777047408
H      -0.947678139      0.553634109     -1.204689393
           6
  t=        51.50000    4    1
C       0.060353722      0.053848192     -1.293900734
N      -0.010005121     -0.080935727      2.478303400
H       0.406096314     -0.978543552     -1.751420085
H       0.888571377      0.545632159      2.445025989
H      -0.927044019      0.359564138      2.739382810
H      -0.947205672      0.556649615     -1.190702616
           6
  t=        52.00000    4    1
C       0.060797208      0.054400602     -1.307737195
N      -0.008263983     -0.081606593      2.490242383
H       0.394113510     -0.969873072     -1.717292705
H       0.872875430      0.541343109      2.433562499
H      -0.933154308      0.356392597      2.701833386
H      -0.942888872      0.558182632     -1.176952275
           6
  t=        52.50000    4    1
C       0.061010000      0.054640009     -1.321672732
N      -0.006369690     -0.082087140      2.501987308
H       0.380982083     -0.956275139     -1.681167819
H       0.850581611      0.534662856      2.424027981
H      -0.934750152      0.353291955      2.664633580
H      -0.934721185      0.558191020     -1.163602033
           6
  t=        53.00000    4    1
C       0.060957555      0.054718341     -1.335626266
N      -0.004381750     -0.082459808      2.513534841
H       0.367325676     -0.939633238     -1.643967874
H       0.823060120      0.526513248      2.416340679
H      -0.932384056      0.350486001      2.627987420
H      -0.922905814      0.556749095     -1.150770805
           6
  t=        53.50000    4    1
C       0.060608285      0.054830353     -1.349519455
N      -0.002392824     -0.082832330      2.524895155
H       0.353947340     -0.922465049     -1.606642501
H       0.792322941      0.518197551      2.410268247
H      -0.926790300      0.348165804      2.592060407
H      -0.907859928      0.554058159     -1.138516243
           6
  t=        54.00000    4    1
C       0.059937618      0.055201476     -1.363288506
N      -0.000530032     -0.083339182      2.536094271
H       0.341782515     -0.907789066     -1.570041271
H       0.761008067      0.511429500      2.405399461
H      -0.918850707      0.346481165      2.556972665
H      -0.890216345      0.550457482     -1.126818802
           6
  t=        54.50000    4    1
C       0.058937960      0.056051908     -1.376899132
N       0.001056643     -0.084133228      2.547173812
H       0.331772697     -0.898704620     -1.534746545
H       0.732162629      0.508228436      2.401148385
H      -0.909538225      0.345529985      2.522795821
H      -0.870816372      0.546431193     -1.115568376
           6
  t=        55.00000    4    1
C       0.057633159      0.057537143     -1.390358000
N       0.002225849     -0.085360159      2.558184840
H       0.324664824     -0.897677904     -1.500941804
H       0.708725334      0.510577640      2.396835500
H      -0.899836407      0.345345721      2.489555669
H      -0.850682085      0.542601622     -1.104557885
           6
  t=        55.50000    4    1
C       0.056089934      0.059686358     -1.403711104
N       0.002891390     -0.087115956      2.569173737
H       0.320809700     -0.905777224     -1.468422999
H       0.692779804      0.519848845      2.391871913
H      -0.890638601      0.345882664      2.457243422
H      -0.830951323      0.539697243     -1.093490462
           6
  t=        56.00000    4    1
C       0.054415257      0.062375890     -1.417025154
N       0.003059338     -0.089404897      2.580163985
H       0.320075212     -0.922290820     -1.436790088
H       0.684931595      0.536235461      2.385990364
H      -0.882640498      0.346999928      2.425838114
H      -0.812759916      0.538485635     -1.082009902
           6
  t=        56.50000    4    1
C       0.052735051      0.065359633     -1.430360051
N       0.002827206     -0.092126230      2.591144244
H       0.321930646     -0.944986843     -1.405712832
H       0.684230458      0.558578468      2.379380942
H      -0.876251047      0.348450730      2.395337700
H      -0.797072170      0.539671203     -1.069763703
           6
  t=        57.00000    4    1
C       0.051162261      0.068339175     -1.443746137
N       0.002343682     -0.095100033      2.602069897
H       0.325642101     -0.970831823     -1.375111022
H       0.688685832      0.584725848      2.372636115
H      -0.871548886      0.349882141      2.365794007
H      -0.784495704      0.543778673     -1.056495150
           6
  t=        57.50000    4    1
C       0.049769281      0.071034593     -1.457173539
N       0.001757989     -0.098114072      2.612875215
H       0.330462955     -0.996736582     -1.345183292
H       0.695991563      0.612163820      2.366557317
H      -0.868303800      0.350854715      2.337338392
H      -0.775143328      0.551056241     -1.042142718
           6
  t=        58.00000    4    1
C       0.048575632      0.073228595     -1.470592738
N       0.001186844     -0.100964948      2.623487369
H       0.335750769     -1.020040287     -1.316332798
H       0.704064540      0.638550288      2.361955494
H      -0.866056471      0.350880437      2.310188002
H      -0.768602931      0.561434338     -1.026909032
           6
  t=        58.50000    4    1
C       0.047552367      0.074779994     -1.483922459
N       0.000705286     -0.103481229      2.633836521
H       0.341008590     -1.038699059     -1.289066571
H       0.711281872      0.661988988      2.359527518
H      -0.864228256      0.349469791      2.284630370
H      -0.764031253      0.574554019     -1.011268835
           6
  t=        59.00000    4    1
C       0.046637398      0.075616512     -1.497061314
N       0.000352726     -0.105530882      2.643861311
H       0.345880161     -1.051282347     -1.263913912
H       0.716504414      0.681088332      2.359811933
H      -0.862228802      0.346175975      2.260992551
H      -0.760331594      0.589849211     -0.995913096
           6
  t=        59.50000    4    1
C       0.045753658      0.075719030     -1.509900231
N       0.000144014     -0.107020077      2.653511344
H       0.350127589     -1.056888013     -1.241374171
H       0.719008011      0.694911493      2.363192231
H      -0.859541008      0.340628084      2.239604110
H      -0.756347714      0.606649459     -0.981653985
           6
  t=        60.00000    4    1
C       0.044824054      0.075105789     -1.522333358
N       0.000079451     -0.107889078      2.662748327
H       0.353608539     -1.055046487     -1.221887195
H       0.718400592      0.702899373      2.369917197
H      -0.855777282      0.332550878      2.220761509
H      -0.751019012      0.624272334     -0.969325235
           6
  t=        60.50000    4    1
C       0.043780777      0.073820642     -1.534266327
N       0.000151434     -0.108108416      2.671546756
H       0.356260123     -1.045647305     -1.205815459
H       0.714559664      0.704808962      2.380121051
H      -0.850709509      0.321773174      2.204698645
H      -0.743475221      0.642089984     -0.959701747
           6
  t=        61.00000    4    1
C       0.042569227      0.071926458     -1.545622076
N       0.000347595     -0.107676818      2.679894857
H       0.358093343     -1.028900641     -1.193427982
H       0.707601044      0.700683626      2.393834185
H      -0.844281547      0.308228581      2.191562982
H      -0.733077344      0.659569322     -0.953446324
           6
  t=        61.50000    4    1
C       0.041148034      0.069503277     -1.556345142
N       0.000650744     -0.106621535      2.687796011
H       0.359198659     -1.005335909     -1.184878602
H       0.697880314      0.690860799      2.410981840
H      -0.836610104      0.291952268      2.181396700
H      -0.719423261      0.676292779     -0.951079919
           6
  t=        62.00000    4    1
C       0.039486637      0.066650259     -1.566405671
N       0.001036003     -0.105001188      2.695270710
H       0.359763621     -0.975835608     -1.180172886
H       0.686024963      0.676016393      2.431371069
H      -0.827977303      0.273075976      2.174122035
H      -0.702336377      0.691969028     -0.952966444
           6
  t=        62.50000    4    1
C       0.037561487      0.063490171     -1.575804094
N       0.001465583     -0.102910622      2.702358710
H       0.360103002     -0.941697296     -1.179120874
H       0.672991080      0.657238259      2.454670029
H      -0.818814974      0.251821867      2.169531457
H      -0.681850247      0.706441633     -0.959303722
           6
  t=        63.00000    4    1
C       0.035351592      0.060174414     -1.584576681
N       0.001882332     -0.100485993      2.709120430
H       0.360699037     -0.904705282     -1.181278727
H       0.660126090      0.636104841      2.480390180
H      -0.809677940      0.228494604      2.167285168
H      -0.658195692      0.719700931     -0.970114900
           6
  t=        63.50000    4    1
C       0.032834375      0.056884928     -1.592800877
N       0.002205008     -0.097905997      2.715635836
H       0.362241751     -0.867171192     -1.185894860
H       0.649192186      0.614713315      2.507891957
H      -0.801201857      0.203470298      2.166920341
H      -0.631791636      0.731901768     -0.985238102
           6
  t=        64.00000    4    1
C       0.029983653      0.053826878     -1.600597227
N       0.002331168     -0.095382081      2.721998357
H       0.365644316     -0.831870086     -1.191896823
H       0.642265337      0.595559366      2.536442583
H      -0.794042334      0.177181017      2.167877033
H      -0.603236472      0.743386516     -1.004315902
           6
  t=        64.50000    4    1
C       0.026772873      0.051204517     -1.608122636
N       0.002155230     -0.093129962      2.728302444
H       0.371989098     -0.801776626     -1.197976046
H       0.641406376      0.581162043      2.565343033
H      -0.788796816      0.150094509      2.169543753
H      -0.573292800      0.754708271     -1.026790423
           6
  t=        65.00000    4    1
C       0.023186730      0.049176721     -1.615549959
N       0.001603731     -0.091322827      2.734627343
H       0.382356275     -0.779547473     -1.202819213
H       0.648084426      0.573437710      2.594089737
H      -0.785917649      0.122690417      2.171320987
H      -0.542854633      0.766642321     -1.051914844
           6
  t=        65.50000    4    1
C       0.019240148      0.047802619     -1.623034995
N       0.000673956     -0.090044512      2.741024922
H       0.397534275     -0.766853193     -1.205458491
H       0.662559464      0.573074040      2.622470813
H      -0.785631028      0.095436109      2.172694368
H      -0.512884141      0.780164985     -1.078796329
           6
  t=        66.00000    4    1
C       0.014995120      0.047005576     -1.630682521
N      -0.000550871     -0.089271999      2.747518794
H       0.417715984     -0.763867890     -1.205587481
H       0.683613562      0.579307068      2.650510087
H      -0.787879139      0.068766654      2.173303408
H      -0.484308576      0.796371906     -1.106485161
           6
  t=        66.50000    4    1
C       0.010561215      0.046584447     -1.638527501
N      -0.001924460     -0.088899672      2.754113237
H       0.442355438     -0.769239489     -1.203647784
H       0.708850053      0.590270027      2.678296671
H      -0.792301454      0.043073051      2.172988879
H      -0.457883081      0.816314331     -1.134112728
           6
  t=        67.00000    4    1
C       0.006074428      0.046273366     -1.646538017
N      -0.003282982     -0.088786525      2.760803471
H       0.470280461     -0.780566649     -1.200633765
H       0.735356096      0.603651273      2.705831003
H      -0.798264681      0.018700105      2.171804885
H      -0.434051469      0.840764210     -1.161052855
           6
  t=        67.50000    4    1
C       0.001665603      0.045819182     -1.654632640
N      -0.004484933     -0.088797660      2.767581667
H       0.499981686     -0.795078853     -1.197758805
H       0.760331837      0.617265799      2.732969520
H      -0.804938147     -0.004048722      2.169991708
H      -0.412859275      0.869972425     -1.187049630
           6
  t=        68.00000    4    1
C      -0.002563856      0.045040095     -1.662701766
N      -0.005430296     -0.088826468      2.774439112
H       0.529912971     -0.810186021     -1.196168675
H       0.781459594      0.629356610      2.759452219
H      -0.811396637     -0.024904581      2.167918887
H      -0.393964915      0.903520493     -1.212250829
           6
  t=        68.50000    4    1
C      -0.006549772      0.043848157     -1.670627465
N      -0.006061454     -0.088800150      2.781367073
H       0.558694015     -0.823765772     -1.196786321
H       0.797022150      0.638667109      2.784960366
H      -0.816726059     -0.043629029      2.166016131
H      -0.376749683      0.940339844     -1.237127303
           6
  t=        69.00000    4    1
C      -0.010259364      0.042240305     -1.678299951
N      -0.006355043     -0.088676619      2.788357717
H       0.585200484     -0.834234452     -1.200270756
H       0.805878502      0.644398219      2.809168845
H      -0.820112272     -0.060014186      2.164708591
H      -0.360477333      0.978889726     -1.262318431
           6
  t=        69.50000    4    1
C      -0.013680175      0.040273268     -1.685629250
N      -0.006312401     -0.088439200      2.795405170
H       0.608577857     -0.840502362     -1.207037942
H       0.807394698      0.646138748      2.831782794
H      -0.820904568     -0.073886610      2.164365723
H      -0.344439825      1.017411037     -1.288472548
           6
  t=        70.00000    4    1
C      -0.016810482      0.038036919     -1.692551363
N      -0.005952602     -0.088092622      2.802506408
H       0.628220647     -0.841892333     -1.217301327
H       0.801386809      0.643815714      2.852561661
H      -0.818655410     -0.085113208      2.165265029
H      -0.328050775      1.054162105     -1.316133172
           6
  t=        70.50000    4    1
C      -0.019653924      0.035634210     -1.699029699
N      -0.005309408     -0.087661808      2.809661750
H       0.643745834     -0.838064836     -1.231109141
H       0.788101607      0.637683971      2.871337504
H      -0.813143419     -0.093607529      2.167566938
H      -0.310882868      1.087582549     -1.345684631
           6
  t=        71.00000    4    1
C      -0.022218254      0.033169693     -1.705053631
N      -0.004432092     -0.087193947      2.816874891
H       0.654976235     -0.828967274     -1.248369595
H       0.768241517      0.628360616      2.888033525
H      -0.804386967     -0.099335228      2.171295647
H      -0.292666082      1.116379129     -1.377344047
           6
  t=        71.50000    4    1
C      -0.024517159      0.030745236     -1.710636012
N      -0.003389187     -0.086763607      2.824152528
H       0.661941223     -0.814812044     -1.268862355
H       0.743025446      0.616899671      2.902686140
H      -0.792652865     -0.102317643      2.176322124
H      -0.273266667      1.139554678     -1.411179126
           6
  t=        72.00000    4    1
C      -0.026574189      0.028460535     -1.715810915
N      -0.002272951     -0.086479332      2.831503691
H       0.664897675     -0.796081955     -1.292237998
H       0.714254143      0.604884346      2.915469360
H      -0.778459745     -0.102632193      2.182348670
H      -0.252661360      1.156407315     -1.447135333
           6
  t=        72.50000    4    1
C      -0.028428070      0.026416106     -1.720632025
N      -0.001199891     -0.086487531      2.838939167
H       0.664370318     -0.773557650     -1.318009526
H       0.684309246      0.594476600      2.926712028
H      -0.762569775     -0.100407815      2.188899243
H      -0.230914433      1.166522078     -1.485063178
           6
  t=        73.00000    4    1
C      -0.030138617      0.024716574     -1.725171340
N      -0.000299756     -0.086965417      2.846471836
H       0.661204659     -0.748355569     -1.345543280
H       0.655968035      0.588307756      2.936886795
H      -0.745956441     -0.095813519      2.195325441
H      -0.208160250      1.169769618     -1.524742232
           6
  t=        73.50000    4    1
C      -0.031791676      0.023471612     -1.729517121
N       0.000314063     -0.088092824      2.854118772
H       0.656613676     -0.721953423     -1.374061899
H       0.631920374      0.589067845      2.946543557
H      -0.729732672     -0.089039209      2.200843357
H      -0.184591050      1.166320334     -1.565902173
           6
  t=        74.00000    4    1
C      -0.033500083      0.022790925     -1.733769291
N       0.000588458     -0.090000956      2.861904380
H       0.652180207     -0.696163266     -1.402678237
H       0.614033822      0.598769254      2.956180828
H      -0.715026362     -0.080271375      2.204618306
H      -0.160447921      1.156677123     -1.608243319
           6
  t=        74.50000    4    1
C      -0.035395997      0.022769019     -1.738030261
N       0.000564077     -0.092718130      2.869860418
H       0.649756610     -0.672998592     -1.430480654
H       0.602714509      0.617971515      2.966105210
H      -0.702806441     -0.069671859      2.205904952
H      -0.136011587      1.141723996     -1.651460412
           6
  t=        75.00000    4    1
C      -0.037610349      0.023457483     -1.742390335
N       0.000367694     -0.096148370      2.878017786
H       0.651206436     -0.654395925     -1.456675563
H       0.596822864      0.645477699      2.976368726
H      -0.693692918     -0.057372032      2.204224079
H      -0.111588512      1.122777962     -1.695273964
           6
  t=        75.50000    4    1
C      -0.040240395      0.024829791     -1.746910144
N       0.000162473     -0.100099194      2.886391174
H       0.657995253     -0.641821323     -1.480754797
H       0.594223627      0.678738639      2.986824455
H      -0.687816103     -0.043491280      2.199520527
H      -0.087487739      1.101615085     -1.739472263
           6
  t=        76.00000    4    1
C      -0.043316462      0.026754801     -1.751606695
N       0.000090364     -0.104336273      2.894965569
H       0.670761006     -0.635903566     -1.502611677
H       0.592560149      0.714650165      2.997246541
H      -0.684790868     -0.028175401      2.192230858
H      -0.063986881      1.080419742     -1.783961577
           6
  t=        76.50000    4    1
C      -0.046785635      0.029000677     -1.756450530
N       0.000239372     -0.108630887      2.903693091
H       0.689081527     -0.636288441     -1.522531353
H       0.589815578      0.750252171      3.007434403
H      -0.683823176     -0.011636670      2.183223105
H      -0.041293790      1.061592612     -1.828809693
           6
  t=        77.00000    4    1
C      -0.050522499      0.031279965     -1.761376820
N       0.000641090     -0.112785140      2.912500729
H       0.711578515     -0.641803605     -1.541052530
H       0.584538140      0.783100828      3.017266588
H      -0.683900971      0.005823997      2.173635184
H      -0.019522692      1.047379126     -1.874251841
           6
  t=        77.50000    4    1
C      -0.054359070      0.033322413     -1.766306752
N       0.001285383     -0.116638899      2.921303397
H       0.736288793     -0.650830925     -1.558778889
H       0.575835793      0.811361869      3.026713485
H      -0.683992683      0.023820072      2.164680502
H       0.001290702      1.039374851     -1.920624347
           6
  t=        78.00000    4    1
C      -0.058115910      0.034943365     -1.771172063
N       0.002138269     -0.120067757      2.930016308
H       0.761096927     -0.661689413     -1.576229624
H       0.563277889      0.833760520      3.035830112
H      -0.683196958      0.041901171      2.157483008
H       0.021126765      1.038094067     -1.968221712
           6
  t=        78.50000    4    1
C      -0.061622629      0.036077359     -1.775935001
N       0.003155711     -0.122978729      2.938563581
H       0.784060987     -0.672894456     -1.593767136
H       0.546788518      0.849493090      3.044744496
H      -0.680827460      0.059581802      2.152969012
H       0.039900036      1.042828825     -2.017131058
           6
  t=        79.00000    4    1
C      -0.064727830      0.036768048     -1.780597610
N       0.004291804     -0.125306966      2.946882847
H       0.803582582     -0.683272221     -1.611588981
H       0.526565414      0.858154447      3.053649121
H      -0.676445253      0.076368285      2.151811759
H       0.057407406      1.051883285     -2.067129643
           6
  t=        79.50000    4    1
C      -0.067303769      0.037129729     -1.785198855
N       0.005502420     -0.127014766      2.954926954
H       0.818455696     -0.691973824     -1.629753593
H       0.503030907      0.859702679      3.062798062
H      -0.669860363      0.091780527      2.154410680
H       0.073334710      1.063045834     -2.117693437
           6
  t=        80.00000    4    1
C      -0.069249260      0.037304682     -1.789803667
N       0.006745952     -0.128093375      2.962664051
H       0.827850081     -0.698442761     -1.648215256
H       0.476810370      0.854466479      3.072510145
H      -0.661120527      0.105369598      2.160887132
H       0.087307836      1.074064458     -2.168092701
           6
  t=        80.50000    4    1
C      -0.070491580      0.037432580     -1.794490113
N       0.007982532     -0.128567613      2.970076973
H       0.831272858     -0.702372807     -1.666855487
H       0.448729429      0.843193269      3.083177565
H      -0.650497512      0.116734004      2.171084583
H       0.098953867      1.082968788     -2.217513514
           6
  t=        81.00000    4    1
C      -0.070987395      0.037635705     -1.799339021
N       0.009172816     -0.128502803      2.977162316
H       0.828533621     -0.703675647     -1.685506729
H       0.419817651      0.827127370      3.095278707
H      -0.638474100      0.125537761      2.184568699
H       0.107947084      1.088213820     -2.265157794
           6
  t=        81.50000    4    1
C      -0.070723138      0.038016208     -1.804427350
N       0.010277508     -0.128012017      2.983929252
H       0.819724736     -0.702465960     -1.703968625
H       0.391300128      0.808088785      3.109392143
H      -0.625729093      0.131532187      2.200629884
H       0.114033290      1.088697673     -2.310305988
           6
  t=        82.00000    4    1
C      -0.069715537      0.038660084     -1.809824621
N       0.011259103     -0.127258937      2.990397968
H       0.805220003     -0.699065615     -1.722018886
H       0.364548965      0.788488086      3.126204076
H      -0.613113139      0.134580816      2.218297607
H       0.117037534      1.083718445     -2.352348764
           6
  t=        82.50000    4    1
C      -0.068012682      0.039643742     -1.815591027
N       0.012087550     -0.126448268      2.996597868
H       0.785688469     -0.694024718     -1.739421145
H       0.340960391      0.771169435      3.146491658
H      -0.601604781      0.134683065      2.236382003
H       0.116863208      1.072917107     -2.390801593
           6
  t=        83.00000    4    1
C      -0.065695305      0.041040416     -1.821775941
N       0.012750448     -0.125794995      3.002566395
H       0.762112970     -0.688152400     -1.755932081
H       0.321737777      0.758969768      3.171051866
H      -0.592235119      0.131987893      2.253561302
H       0.113488756      1.056231984     -2.425315403
           6
  t=        83.50000    4    1
C      -0.062876811      0.042924192     -1.828415789
N       0.013264643     -0.125472466      3.008349629
H       0.735792901     -0.682541906     -1.771309691
H       0.307616438      0.754004705      3.200546416
H      -0.585973899      0.126786572      2.268528576
H       0.106965469      1.033875866     -2.455693513
           6
  t=        84.00000    4    1
C      -0.059699449      0.045369043     -1.835530591
N       0.013681331     -0.125558425      3.014004051
H       0.708298806     -0.678561747     -1.785323957
H       0.298646280      0.756954175      3.235277136
H      -0.583583133      0.119477226      2.280191909
H       0.097417292      1.006338617     -2.481922250
           6
  t=        84.50000    4    1
C      -0.056323281      0.048439624     -1.843118716
N       0.014076976     -0.126010988      3.019595435
H       0.681340466     -0.677772022     -1.797770164
H       0.294167473      0.766787707      3.274987218
H      -0.585466572      0.110505798      2.287888581
H       0.085041443      0.974413090     -2.504220075
           6
  t=        85.00000    4    1
C      -0.052905865      0.052171272     -1.851149890
N       0.014531548     -0.126690946      3.025190869
H       0.656527053     -0.681727402     -1.808483907
H       0.293006738      0.781137065      3.318813955
H      -0.591563698      0.100303333      2.291543213
H       0.070106397      0.939236167     -2.523105964
           6
  t=        85.50000    4    1
C      -0.049575025      0.056540920     -1.859557306
N       0.015105848     -0.127413566      3.030846205
H       0.635053323     -0.691667901     -1.817356063
H       0.293778303      0.797057111      3.365429048
H      -0.601335575      0.089244931      2.291702048
H       0.052941440      0.902325826     -2.539478435
           6
  t=        86.00000    4    1
C      -0.046403363      0.061438881     -1.868231330
N       0.015829483     -0.127998737      3.036596532
H       0.617422550     -0.708178538     -1.824345823
H       0.295142747      0.811729594      3.413280283
H      -0.613856595      0.077642731      2.289423520
H       0.033910169      0.865576683     -2.554677487
           6
  t=        86.50000    4    1
C      -0.043395840      0.066658986     -1.877019789
N       0.016702048     -0.128301231      3.042454822
H       0.603346808     -0.730967551     -1.829489427
H       0.295955479      0.822865503      3.460818352
H      -0.627979197      0.065764206      2.286070282
H       0.013362242      0.831155497     -2.570472310
           6
  t=        87.00000    4    1
C      -0.040496120      0.071922447     -1.885742026
N       0.017702407     -0.128220862      3.048417442
H       0.591887229     -0.758885615     -1.832900984
H       0.295316726      0.828821984      3.506647536
H      -0.642512658      0.053856439      2.283081726
H      -0.008431518      0.801236170     -2.588893075
           6
  t=        87.50000    4    1
C      -0.037607468      0.076935048     -1.894221775
N       0.018799618     -0.127700361      3.054471984
H       0.581757521     -0.790177883     -1.834762152
H       0.292564106      0.828557119      3.549599841
H      -0.656367241      0.042162015      2.281791067
H      -0.031334074      0.777570638     -2.611849703
           6
  t=        88.00000    4    1
C      -0.034619180      0.081456127     -1.902333443
N       0.019961617     -0.126718626      3.060603695
H       0.571639769     -0.822838298     -1.835301632
H       0.287243096      0.821531955      3.588760028
H      -0.668645219      0.030923233      2.283310847
H      -0.055343330      0.761021823     -2.640601244
           6
  t=        88.50000    4    1
C      -0.031431456      0.085346960     -1.910041824
N       0.021160538     -0.125283764      3.066798894
H       0.560403241     -0.854922558     -1.834769225
H       0.279076406      0.807619448      3.623471289
H      -0.678683999      0.020376603      2.288479894
H      -0.080514994      0.751300378     -2.675309001
           6
  t=        89.00000    4    1
C      -0.027973671      0.088577597     -1.917412189
N       0.022375406     -0.123428590      3.073045514
H       0.547200880     -0.884745064     -1.833413035
H       0.267942058      0.787050460      3.653344864
H      -0.686071603      0.010744283      2.297846204
H      -0.106841475      0.747080229     -2.714939267
           6
  t=        89.50000    4    1
C      -0.024212666      0.091197909     -1.924585804
N       0.023593158     -0.121209029      3.079331070
H       0.531478129     -0.910964192     -1.831462962
H       0.253863008      0.760401332      3.678289281
H      -0.690650511      0.002224330      2.311665988
H      -0.134162044      0.746428593     -2.757571412
           6
  t=        90.00000    4    1
C      -0.020150928      0.093297058     -1.931738036
N       0.024809169     -0.118705746      3.085638593
H       0.512937982     -0.932594198     -1.829121736
H       0.237006983      0.728624099      3.698569883
H      -0.692524864     -0.005016921      2.329900855
H      -0.162149363      0.747300503     -2.800905787
           6
  t=        90.50000    4    1
C      -0.015818642      0.094972262     -1.939041064
N       0.026027943     -0.116027776      3.091940588
H       0.491494751     -0.948984700     -1.826560201
H       0.217689975      0.693103064      3.714899708
H      -0.692073750     -0.010851095      2.352210868
H      -0.190357841      0.747890314     -2.842712538
           6
  t=        91.00000    4    1
C      -0.011264503      0.096313569     -1.946641991
N       0.027264929     -0.113316175      3.098192117
H       0.467231833     -0.959794334     -1.823914780
H       0.196370690      0.655708213      3.728546096
H      -0.689970914     -0.015190506      2.377944157
H      -0.218290702      0.746786673     -2.881094788
           6
  t=        91.50000    4    1
C      -0.006548288      0.097401288     -1.954655473
N       0.028550074     -0.110742847      3.104325817
H       0.440368689     -0.964972957     -1.821284440
H       0.173615254      0.618777502      3.741399245
H      -0.687199021     -0.017986840      2.406137571
H      -0.245455185      0.742985468     -2.914579453
           6
  t=        92.00000    4    1
C      -0.001735881      0.098310168     -1.963165173
N       0.029932971     -0.108496936      3.110254925
H       0.411236265     -0.964757348     -1.818725370
H       0.150010608      0.584922168      3.755893116
H      -0.685034717     -0.019225676      2.435553737
H      -0.271397123      0.735835791     -2.942105265
           6
  t=        92.50000    4    1
C       0.003103940      0.099115791     -1.972228785
N       0.031486910     -0.106752014      3.115891994
H       0.380257211     -0.959678730     -1.816242368
H       0.126028232      0.556563155      3.774639349
H      -0.684968718     -0.018918764      2.464787112
H      -0.295719328      0.724971402     -2.962971558
           6
  t=        93.00000    4    1
C       0.007902096      0.099900294     -1.981883312
N       0.033305116     -0.105618105      3.121184192
H       0.347925677     -0.950574106     -1.813776994
H       0.101895507      0.535259665      3.799738871
H      -0.688525058     -0.017099172      2.492461941
H      -0.318092098      0.710253923     -2.976787286
           6
  t=        93.50000    4    1
C       0.012592318      0.100755341     -1.992148805
N       0.035481622     -0.105101332      3.126148228
H       0.314780749     -0.938586125     -1.811194135
H       0.077574365      0.521153640      3.832024372
H      -0.696973969     -0.013826450      2.517504622
H      -0.338263661      0.691737248     -2.983440065
           6
  t=        94.00000    4    1
C       0.017115753      0.101780263     -2.003029468
N       0.038078262     -0.105099745      3.130876659
H       0.281368477     -0.925128172     -1.808271336
H       0.052890277      0.512930539      3.870710144
H      -0.711002332     -0.009205262      2.539406488
H      -0.356077078      0.669654715     -2.983093936
           6
  t=        94.50000    4    1
C       0.021427652      0.103073178     -2.014511160
N       0.041093867     -0.105439663      3.135506570
H       0.248191313     -0.911787031     -1.804698626
H       0.027723693      0.508348906      3.913700676
H      -0.730477007     -0.003409982      2.558350582
H      -0.371499319      0.644427463     -2.976219476
           6
  t=        95.00000    4    1
C       0.025505957      0.104713799     -2.026554458
N       0.044454265     -0.105926822      3.140174701
H       0.215651940     -0.900143956     -1.800098847
H       0.002133207      0.504964695      3.958302874
H      -0.754428963      0.003301740      2.575123043
H      -0.384667473      0.616690149     -2.963656232
           6
  t=        95.50000    4    1
C       0.029360557      0.106739527     -2.039083255
N       0.048027039     -0.106384962      3.144988382
H       0.184008640     -0.891524974     -1.794076070
H      -0.023631618      0.500657303      4.001890175
H      -0.781270924      0.010599099      2.590852818
H      -0.395954569      0.587325892     -2.946699953
           6
  t=        96.00000    4    1
C       0.033040873      0.109121242     -2.051971310
N       0.051649513     -0.106673461      3.150019819
H       0.153364393     -0.886739453     -1.786288841
H      -0.049182929      0.493843970      4.042281294
H      -0.809133346      0.018108739      2.606712093
H      -0.406049167      0.557493001     -2.927189401
           6
  t=        96.50000    4    1
C       0.036638526      0.111749548     -2.065033306
N       0.055155646     -0.106689745      3.155313892
H       0.123702453     -0.885902310     -1.776528705
H      -0.074057813      0.483476763      4.077855721
H      -0.836174643      0.025451353      2.623692266
H      -0.416022873      0.528611045     -2.907534045
           6
  t=        97.00000    4    1
C       0.040280892      0.114442102     -2.078031397
N       0.058394217     -0.106364701      3.160898314
H       0.094958183     -0.888420194     -1.764774400
H      -0.097765817      0.468949054      4.107524303
H      -0.860786223      0.032271386      2.642492021
H      -0.427325634      0.502259660     -2.890581695
           6
  t=        97.50000    4    1
C       0.044110505      0.116975836     -2.090708224
N       0.061237915     -0.105656485      3.166790735
H       0.067096606     -0.893149391     -1.751199844
H      -0.119818077      0.449991427      4.130654222
H      -0.881689571      0.038255175      2.663493514
H      -0.441618075      0.479952878     -2.879217372
           6
  t=        98.00000    4    1
C       0.048247905      0.119135785     -2.102846354
N       0.063586397     -0.104545261      3.173001863
H       0.040164697     -0.898653786     -1.736136560
H      -0.139744612      0.426589931      4.147002908
H      -0.897961424      0.043139474      2.686785150
H      -0.460381465      0.462815710     -2.875693080
           6
  t=        98.50000    4    1
C       0.052746739      0.120760915     -2.114331842
N       0.065366705     -0.103029646      3.179535298
H       0.014305520     -0.903462882     -1.720011131
H      -0.157107507      0.398933354      4.156683369
H      -0.909026438      0.046714757      2.712198561
H      -0.484397197      0.451296592     -2.880933613
           6
  t=        99.00000    4    1
C       0.057563935      0.121766411     -2.125184720
N       0.066533505     -0.101124874      3.186384864
H      -0.010258903     -0.906260738     -1.703282297
H      -0.171516568      0.367385515      4.160167392
H      -0.914644939      0.048827358      2.739342587
H      -0.513374417      0.445090967     -2.894236567
           6
  t=        99.50000    4    1
C       0.062564957      0.122136653     -2.135536755
N       0.067070573     -0.098862310      3.193529891
H      -0.033260238     -0.905988496     -1.686392617
H      -0.182652561      0.332474555      4.158325447
H      -0.914910466      0.049383245      2.767629082
H      -0.545979838      0.443327647     -2.913585546
           6
  t=       100.00000    4    1
C       0.067559999      0.121901569     -2.145575305
N       0.066994065     -0.096289590      3.200928887
H      -0.054418264     -0.901879180     -1.669737122
H      -0.190300927      0.294888113      4.152494744
H      -0.910261531      0.048354799      2.796292754
H      -0.580234203      0.444885167     -2.936350103
