           6
  t=         0.00000   12    3
C       0.008826475     -0.014490338      0.041395623
N       0.008080425      0.017224417      1.309229516
H       0.893517964      0.051794267     -0.504588801
H       0.849241056     -0.086319223      1.800143114
H      -0.960992742     -0.059273229      1.740816739
H      -0.999133793      0.027054037     -0.448140066
           6
  t=         0.50000   12    3
C       0.008266675     -0.015075112      0.040148902
N       0.008258953      0.016427717      1.310038111
H       0.893540619      0.050491666     -0.495174190
H       0.831053668     -0.074444088      1.784984509
H      -0.949080593     -0.060067179      1.744106200
H      -0.988695045      0.035306633     -0.442075712
           6
  t=         1.00000    9    3
C       0.007119177     -0.015677336      0.035723504
N       0.007624871      0.015713224      1.313381278
H       0.897564029      0.048884064     -0.488779660
H       0.818155269     -0.063050620      1.775196659
H      -0.931188262     -0.060989820      1.747852928
H      -0.975237917      0.043540157     -0.436187585
           6
  t=         1.50000    9    3
C       0.005314308     -0.016423601      0.028278325
N       0.006190464      0.015126099      1.319009823
H       0.908461036      0.047526162     -0.483570577
H       0.814271737     -0.052202330      1.770574575
H      -0.910326913     -0.062062172      1.751093252
H      -0.961691010      0.052164199     -0.429571189
           6
  t=         2.00000    9    3
C       0.003216956     -0.017194722      0.018154724
N       0.003921052      0.014634438      1.326594495
H       0.922680170      0.046146839     -0.481294228
H       0.819590630     -0.042225841      1.773578958
H      -0.886972680     -0.063171616      1.756196504
H      -0.948077161      0.060688117     -0.424799056
           6
  t=         2.50000    9    3
C       0.001078194     -0.017999511      0.005745105
N       0.001067289      0.014232680      1.335812525
H       0.939214083      0.045282599     -0.481616608
H       0.833448069     -0.033530258      1.783727994
H      -0.863865632     -0.063896126      1.764304905
H      -0.936457212      0.068744631     -0.423053222
           6
  t=         3.00000    8    2
C      -0.000813706     -0.018904516     -0.007458666
N      -0.001914814      0.013911795      1.345759622
H       0.958345193      0.047469814     -0.486153450
H       0.853573602     -0.028325792      1.799586995
H      -0.844714582     -0.062051059      1.776792036
H      -0.930902687      0.074740837     -0.427855712
           6
  t=         3.50000    8    2
C      -0.002317056     -0.020028188     -0.022940202
N      -0.004967149      0.013710126      1.357370896
H       0.980679518      0.049055562     -0.491331505
H       0.880544749     -0.022053455      1.818482965
H      -0.832109034     -0.062031450      1.793704363
H      -0.932501992      0.083043207     -0.435480828
           6
  t=         4.00000    5    2
C      -0.003309552     -0.021227088     -0.039514689
N      -0.007442282      0.013562727      1.369788663
H       1.001834845      0.049349207     -0.497955616
H       0.907339074     -0.014229446      1.839267408
H      -0.827128227     -0.064264222      1.816711994
H      -0.939223246      0.093480062     -0.447835778
           6
  t=         4.50000    5    2
C      -0.004035735     -0.022490721     -0.056919204
N      -0.009568184      0.013430039      1.382842229
H       1.022199752      0.049085688     -0.505163782
H       0.933211498     -0.005473205      1.860626138
H      -0.826006103     -0.067550826      1.843277761
H      -0.948396728      0.105162031     -0.462690089
           6
  t=         5.00000    5    2
C      -0.004161600     -0.023824356     -0.074968601
N      -0.010743704      0.013314226      1.396459971
H       1.038811596      0.047781944     -0.512801887
H       0.953641784      0.004777877      1.880741145
H      -0.832341220     -0.072630091      1.875313715
H      -0.961270587      0.118781058     -0.481501302
           6
  t=         5.50000    5    2
C      -0.003743074     -0.025219925     -0.093464119
N      -0.011001900      0.013186866      1.410574711
H       1.050894727      0.045517235     -0.520621799
H       0.967170390      0.016525797      1.898632878
H      -0.844203860     -0.079171754      1.911409646
H      -0.976414141      0.134224501     -0.503561004
           6
  t=         6.00000    5    2
C      -0.002888665     -0.026664293     -0.112231624
N      -0.010484882      0.013012097      1.425154599
H       1.058045542      0.042392836     -0.528520131
H       0.973063111      0.029759827      1.913661785
H      -0.858898846     -0.086732573      1.949629679
H      -0.992118207      0.151300429     -0.528027968
           6
  t=         6.50000    5    2
C      -0.001735768     -0.028142676     -0.131114072
N      -0.009383937      0.012749793      1.440180045
H       1.060213419      0.038548979     -0.536520546
H       0.971192500      0.044463939      1.925459241
H      -0.873674187     -0.094806382      1.987915951
H      -1.006662994      0.169759988     -0.554049760
           6
  t=         7.00000    5    2
C      -0.000433321     -0.029643579     -0.149965117
N      -0.007901158      0.012358085      1.455624953
H       1.057684698      0.034178844     -0.544758651
H       0.961981267      0.060635752      1.933886862
H      -0.886191397     -0.102874775      2.024382995
H      -1.018514689      0.189338824     -0.580846881
           6
  t=         7.50000    5    2
C       0.000867784     -0.031164570     -0.168647358
N      -0.006234588      0.011794505      1.471447280
H       1.051066069      0.029544794     -0.553461601
H       0.946409273      0.078312654      1.939023662
H      -0.894730216     -0.110441223      2.057460807
H      -1.026431783      0.209801784     -0.607753012
           6
  t=         8.00000    5    2
C       0.002018221     -0.032717644     -0.187036810
N      -0.004578365      0.011016200      1.487587245
H       1.041262049      0.024994539     -0.562916047
H       0.926065109      0.097603274      1.941176901
H      -0.898225006     -0.117053147      2.085933640
H      -1.029497609      0.230978172     -0.634218664
           6
  t=         8.50000    5    2
C       0.002871559     -0.034332367     -0.205033903
N      -0.003127088      0.009980455      1.503970457
H       1.029432551      0.020964901     -0.573420082
H       0.903191712      0.118721308      1.940902419
H      -0.896232411     -0.122326649      2.108939247
H      -1.027111009      0.252779118     -0.659791304
           6
  t=         9.00000    5    2
C       0.003287718     -0.036054197     -0.222576267
N      -0.002074732      0.008645960      1.520512783
H       1.016914825      0.017954129     -0.585227874
H       0.880634748      0.142017181      1.939004770
H      -0.888879351     -0.125983218      2.125974524
H      -1.018964903      0.275192664     -0.684091841
           6
  t=         9.50000    5    2
C       0.003141798     -0.037936987     -0.239643355
N      -0.001598994      0.006974365      1.537124739
H       1.005102407      0.016457024     -0.598508137
H       0.861574630      0.167993166      1.936458325
H      -0.876809065     -0.127889258      2.136921836
H      -1.005033874      0.298262211     -0.706809650
           6
  t=        10.00000    5    2
C       0.002338528     -0.040033202     -0.256247674
N      -0.001823842      0.004933023      1.553717083
H       0.995286907      0.016890865     -0.613326240
H       0.848962348      0.197263493      1.934189974
H      -0.861148998     -0.128077345      2.142089682
H      -0.985576234      0.322067130     -0.727725867
           6
  t=        10.50000    5    2
C       0.000828666     -0.042387642     -0.272417679
N      -0.002763976      0.002502672      1.570208889
H       0.988481800      0.019547972     -0.629644280
H       0.844736271      0.230407523      1.932759665
H      -0.843519544     -0.126735869      2.142257885
H      -0.961132888      0.346725180     -0.746754911
           6
  t=        11.00000    5    2
C      -0.001377748     -0.045035854     -0.288184537
N      -0.004275510     -0.000308097      1.586533552
H       0.985269061      0.024581014     -0.647314200
H       0.849160237      0.267716357      1.932115356
H      -0.826073990     -0.124179096      2.138707798
H      -0.932515073      0.372410747     -0.763977669
           6
  t=        11.50000    5    2
C      -0.004206194     -0.048004344     -0.303576007
N      -0.006049151     -0.003450205      1.602634387
H       0.985714455      0.031999656     -0.666070266
H       0.860701587      0.308960155      1.931619654
H      -0.811482676     -0.120801393      2.133186404
H      -0.900770312      0.399372068     -0.779651312
           6
  t=        12.00000    5    2
C      -0.007524116     -0.051310198     -0.318614526
N      -0.007663289     -0.006836388      1.618455433
H       0.989383617      0.041669868     -0.685539238
H       0.876551799      0.353340233      1.930340168
H      -0.802722493     -0.117003224      2.127715909
H      -0.867115147      0.427933259     -0.794194193
           6
  t=        12.50000    5    2
C      -0.011159445     -0.054958329     -0.333317168
N      -0.008681225     -0.010361136      1.633945528
H       0.995452687      0.053314845     -0.705276372
H       0.893444729      0.399651228      1.927393571
H      -0.802547391     -0.113080780      2.124182686
H      -0.832822039      0.458465194     -0.808139962
           6
  t=        13.00000    5    2
C      -0.014927857     -0.058936034     -0.347697609
N      -0.008757653     -0.013927691      1.649082827
H       1.002877805      0.066525636     -0.724819555
H       0.908342109      0.446534117      1.922155058
H      -0.812694945     -0.109107372      2.123784399
H      -0.799063821      0.491313534     -0.822057236
           6
  t=        13.50000    5    2
C      -0.018662335     -0.063205140     -0.361770874
N      -0.007714233     -0.017467574      1.663901439
H       1.010569373      0.080785586     -0.743741723
H       0.918800522      0.492692037      1.914300524
H      -0.833199171     -0.104878035      2.126620714
H      -0.766740007      0.526680828     -0.836443625
           6
  t=        14.00000    5    2
C      -0.022238160     -0.067694897     -0.375559466
N      -0.005553937     -0.020944767      1.678495546
H       1.017539689      0.095514061     -0.761692763
H       0.923064241      0.537013571      1.903743889
H      -0.862275950     -0.099970424      2.131712179
H      -0.736335041      0.564493902     -0.851624417
           6
  t=        14.50000    5    2
C      -0.025591780     -0.072300714     -0.389100041
N      -0.002414961     -0.024347143      1.693000213
H       1.023027308      0.110143843     -0.778434206
H       0.920018251      0.578618696      1.890543129
H      -0.896894647     -0.093897656      2.137422578
H      -0.707839627      0.604299314     -0.867699984
           6
  t=        15.00000    5    2
C      -0.028755608     -0.076903050     -0.402456563
N       0.001504766     -0.027673081      1.707584157
H       1.026703244      0.124332581     -0.793907078
H       0.909105033      0.616861317      1.874797702
H      -0.933659101     -0.086272074      2.141945889
H      -0.680627377      0.645251956     -0.884605371
           6
  t=        15.50000    5    2
C      -0.033450955     -0.082272012     -0.416218513
N       0.006282359     -0.030811731      1.723376188
H       1.036139386      0.146067879     -0.811030280
H       0.890792579      0.651365444      1.856021556
H      -0.970589045     -0.077510861      2.142348982
H      -0.645294574      0.687786741     -0.904667691
           6
  t=        16.00000    5    2
C      -0.037577556     -0.086945403     -0.429672042
N       0.011340394     -0.033966232      1.739196683
H       1.041514046      0.163841746     -0.826536091
H       0.864115892      0.681730194      1.835306699
H      -1.003174027     -0.066474644      2.139463604
H      -0.612549536      0.728085506     -0.925188043
           6
  t=        16.50000    5    2
C      -0.041085648     -0.090780593     -0.442889240
N       0.016479523     -0.037110929      1.755053524
H       1.042381919      0.176983603     -0.839920013
H       0.829781407      0.707808025      1.812839757
H      -1.029448428     -0.053368256      2.132606726
H      -0.582441733      0.765116512     -0.945425655
           6
  t=        17.00000    5    2
C      -0.043967948     -0.093659077     -0.455933925
N       0.021522455     -0.040205944      1.770931982
H       1.038733016      0.185009332     -0.850769039
H       0.788893919      0.729582946      1.788791169
H      -1.048075624     -0.038643512      2.121398717
H      -0.555025948      0.797866557     -0.964619817
           6
  t=        17.50000    5    2
C      -0.046242431     -0.095507188     -0.468870519
N       0.026300544     -0.043183002      1.786787989
H       1.030901720      0.187594846     -0.858677328
H       0.743016452      0.747138832      1.763381106
H      -1.058241251     -0.023072960      2.105774861
H      -0.530456724      0.825522636     -0.981952480
           6
  t=        18.00000    5    2
C      -0.047949682     -0.096315736     -0.481779253
N       0.030646786     -0.045937902      1.802532185
H       1.019548749      0.184561672     -0.863195732
H       0.694157771      0.760679025      1.737059486
H      -1.059555539     -0.007758542      2.086102535
H      -0.508989643      0.847604589     -0.996493173
           6
  t=        18.50000    5    2
C      -0.049151695     -0.096135395     -0.494758419
N       0.034409293     -0.048367707      1.818033695
H       1.005627186      0.175843721     -0.863947623
H       0.644503141      0.770737468      1.710615013
H      -1.052023892      0.006126694      2.063267609
H      -0.490909117      0.863990742     -1.007304340
           6
  t=        19.00000    5    2
C      -0.049930890     -0.095037874     -0.507889323
N       0.037481586     -0.050427388      1.833167559
H       0.990340647      0.161472315     -0.860855294
H       0.596053185      0.778332301      1.684858632
H      -1.036151335      0.017660563      2.038433200
H      -0.476453537      0.874781981     -1.013733416
           6
  t=        19.50000    5    2
C      -0.050392167     -0.093096733     -0.521210318
N       0.039823333     -0.052124122      1.847841893
H       0.975150765      0.141594941     -0.854173572
H       0.550501309      0.784732164      1.660318859
H      -1.013094596      0.026165354      2.012780701
H      -0.465811836      0.880215486     -1.015502162
           6
  t=        20.00000    8    2
C      -0.050665233     -0.090392585     -0.534718386
N       0.041475008     -0.053480607      1.861989157
H       0.961789408      0.116480406     -0.844395202
H       0.509194846      0.791094020      1.637266759
H      -0.984800574      0.031106709      1.987452481
H      -0.459134232      0.880675062     -1.012628765
           6
  t=        20.50000    8    2
C      -0.050924341     -0.087107936     -0.547893607
N       0.042576805     -0.054517215      1.875215319
H       0.952678766      0.087598359     -0.832587067
H       0.474363636      0.798081666      1.615601648
H      -0.955600136      0.032097860      1.963512417
H      -0.456615069      0.876870219     -1.005725327
           6
  t=        21.00000    8    2
C      -0.051280580     -0.083320528     -0.561189029
N       0.043333432     -0.055201964      1.887778109
H       0.949039541      0.054349656     -0.818870832
H       0.445238158      0.806080767      1.596039221
H      -0.927529487      0.028857381      1.942101338
H      -0.458190824      0.869777076     -0.994713310
           6
  t=        21.50000    8    2
C      -0.051840521     -0.079157582     -0.574533571
N       0.044020758     -0.055501810      1.899629414
H       0.952239951      0.017113392     -0.803791757
H       0.421972579      0.814810739      1.578876770
H      -0.904626360      0.021254612      1.923904310
H      -0.463910255      0.860483466     -0.980207688
           6
  t=        22.00000    8    2
C      -0.052657898     -0.074800003     -0.587832045
N       0.044922311     -0.055383286      1.910721061
H       0.962952958     -0.023576527     -0.787804672
H       0.404271069      0.823699605      1.564584958
H      -0.890599628      0.009441329      1.909289139
H      -0.473741261      0.850564700     -0.963056120
           6
  t=        22.50000    8    2
C      -0.053653767     -0.070341727     -0.600980273
N       0.046221865     -0.054749913      1.920989765
H       0.980305617     -0.067612815     -0.771146437
H       0.392233919      0.831867255      1.553712670
H      -0.888186966     -0.007158240      1.898448530
H      -0.487666900      0.841147329     -0.944124498
           6
  t=        23.00000    8    2
C      -0.054671192     -0.065934100     -0.613951038
N       0.047964078     -0.053535413      1.930412472
H       1.002523851     -0.114641716     -0.753736258
H       0.385471843      0.838569731      1.546804862
H      -0.897676811     -0.028709447      1.891392648
H      -0.505724466      0.833668066     -0.924052482
           6
  t=        23.50000    8    2
C      -0.055499135     -0.061726650     -0.626725488
N       0.050028955     -0.051693025      1.938969251
H       1.027105663     -0.164095732     -0.735491393
H       0.383505658      0.843220588      1.544330933
H      -0.916980204     -0.055283957      1.888120788
H      -0.527867304      0.829348218     -0.903339015
           6
  t=        24.00000    8    2
C      -0.055923655     -0.057845897     -0.639291503
N       0.052183167     -0.049212761      1.946643199
H       1.051331974     -0.215182723     -0.716423828
H       0.385806772      0.845464709      1.546627926
H      -0.942381777     -0.086693658      1.888683297
H      -0.553868494      0.828930321     -0.882268974
           6
  t=        24.50000    8    2
C      -0.055773033     -0.054373278     -0.651642597
N       0.054156757     -0.046130833      1.953426253
H       1.072701614     -0.266954418     -0.696674115
H       0.391836159      0.845218857      1.553866189
H      -0.969642177     -0.122400266      1.893145016
H      -0.583220964      0.832483868     -0.860902196
           6
  t=        25.00000    8    2
C      -0.054943011     -0.051333519     -0.663774614
N       0.055702727     -0.042528931      1.959325795
H       1.089180609     -0.318409107     -0.676495960
H       0.401079566      0.842689600      1.566034920
H      -0.994859347     -0.161543112      1.901518921
H      -0.615088024      0.839369338     -0.839139222
           6
  t=        25.50000    8    2
C      -0.053400253     -0.048699275     -0.675680031
N       0.056625407     -0.038526831      1.964368166
H       1.099278557     -0.368581652     -0.656221651
H       0.413075725      0.838369703      1.582946759
H      -1.014889905     -0.203037856      1.913724043
H      -0.648339606      0.848383103     -0.816834947
           6
  t=        26.00000    8    2
C      -0.051170508     -0.046408190     -0.687342285
N       0.056785650     -0.034272394      1.968598080
H       1.102019868     -0.416601136     -0.636228818
H       0.427435284      0.833008736      1.604262453
H      -1.027439392     -0.245684709      1.929578451
H      -0.681665309      0.858016861     -0.793909108
           6
  t=        26.50000    8    2
C      -0.048320836     -0.044383301     -0.698732606
N       0.056095913     -0.029930224      1.972074476
H       1.096873687     -0.461718628     -0.616914796
H       0.443844072      0.827545954      1.629538929
H      -1.030996293     -0.288256192      1.948813538
H      -0.713716774      0.866725638     -0.770414109
           6
  t=        27.00000    8    2
C      -0.044943610     -0.042549548     -0.709810615
N       0.054514692     -0.025668193      1.974863693
H       1.083684872     -0.503315769     -0.598676098
H       0.462043136      0.822993414      1.658301243
H      -1.024732976     -0.329564180      1.971096959
H      -0.743230997      0.873129631     -0.746548725
           6
  t=        27.50000    8    2
C      -0.041145848     -0.040843185     -0.720527473
N       0.052045111     -0.021640775      1.977031190
H       1.062623012     -0.540907499     -0.581889024
H       0.481779745      0.820269125      1.690126953
H      -1.008434518     -0.368520838      1.996056995
H      -0.769108942      0.876125236     -0.722633468
           6
  t=        28.00000    7    1
C      -0.037044113     -0.039214051     -0.730828862
N       0.048737879     -0.017969205      1.978634107
H       1.034154388     -0.574150694     -0.566893942
H       0.502743149      0.819999951      1.724712013
H      -0.982470685     -0.404218505      2.023303328
H      -0.790453027      0.874922025     -0.699074321
           6
  t=        28.50000    7    1
C      -0.032708453     -0.037561413     -0.741002772
N       0.044829767     -0.014806102      1.980056502
H       0.998489023     -0.603579959     -0.553232729
H       0.523323013      0.823025483      1.760858307
H      -0.948137801     -0.435495701      2.051410815
H      -0.807022323      0.868974640     -0.675613326
           6
  t=        29.00000    7    1
C      -0.028323469     -0.035917837     -0.750682244
N       0.040380201     -0.012097527      1.980967775
H       0.957234093     -0.628515513     -0.541746255
H       0.543763283      0.828459557      1.799784099
H      -0.906811473     -0.462356070      2.081293654
H      -0.817920036      0.858131453     -0.653317918
           6
  t=        29.50000    7    1
C      -0.024031079     -0.034251941     -0.759853637
N       0.035640127     -0.009798628      1.981373491
H       0.911757061     -0.649237411     -0.532399314
H       0.563045244      0.835592622      1.841613461
H      -0.860881172     -0.484854706      2.112883445
H      -0.822902388      0.842440316     -0.632518740
           6
  t=        30.00000    4    1
C      -0.019974297     -0.032521575     -0.768571516
N       0.030932890     -0.007815382      1.981275587
H       0.863680423     -0.666379362     -0.524760750
H       0.579914275      0.843499448      1.886433646
H      -0.813458484     -0.503505600      2.146343593
H      -0.822015499      0.822165884     -0.613274776
           6
  t=        30.50000    4    1
C      -0.016254538     -0.030621388     -0.777151448
N       0.026575105     -0.005949644      1.980911889
H       0.814248475     -0.681347823     -0.517699067
H       0.593312387      0.851014922      1.933403082
H      -0.767559264     -0.519992030      2.181258672
H      -0.815621441      0.797555494     -0.595007608
           6
  t=        31.00000    4    1
C      -0.012833028     -0.028329962     -0.785838153
N       0.022962150     -0.004036385      1.980078380
H       0.764407990     -0.696548303     -0.508919807
H       0.601900516      0.857108458      1.983203816
H      -0.726956226     -0.535392261      2.218947430
H      -0.805510404      0.768194183     -0.576263956
           6
  t=        31.50000    4    1
C      -0.009762174     -0.025555701     -0.794555780
N       0.020301263     -0.001888278      1.978685305
H       0.715764125     -0.713868712     -0.498225699
H       0.605175946      0.860952174      2.035537093
H      -0.693885406     -0.551581771      2.260232653
H      -0.792804234      0.734979794     -0.557421136
           6
  t=        32.00000    4    1
C      -0.007116768     -0.022355471     -0.803308780
N       0.018632174      0.000579419      1.976646936
H       0.670129096     -0.734292168     -0.485360492
H       0.602891255      0.861989871      2.090371282
H      -0.668725665     -0.569404349      2.306258300
H      -0.778350368      0.699795117     -0.538603665
           6
  t=        32.50000    4    1
C      -0.004798134     -0.018778375     -0.812217545
N       0.017829754      0.003358851      1.973907434
H       0.627987615     -0.758804995     -0.469946377
H       0.595116136      0.859816172      2.148214614
H      -0.649821639     -0.588363629      2.357934460
H      -0.763794867      0.664229262     -0.519398284
           6
  t=        33.00000    4    1
C      -0.002573915     -0.014910127     -0.821344269
N       0.017645929      0.006384270      1.970481897
H       0.588777665     -0.787942917     -0.452186755
H       0.582345843      0.854075484      2.209493441
H      -0.634198889     -0.607053784      2.415095266
H      -0.751365256      0.629701854     -0.499331356
           6
  t=        33.50000    4    1
C      -0.000185809     -0.010928043     -0.830681229
N       0.017814012      0.009539240      1.966484562
H       0.551563366     -0.821229049     -0.432821490
H       0.565207714      0.844614370      2.274137632
H      -0.618772997     -0.623604192      2.476357990
H      -0.743207503      0.597747878     -0.477889329
           6
  t=        34.00000    4    1
C       0.002590177     -0.007056470     -0.840175320
N       0.018110360      0.012695746      1.962101398
H       0.515312917     -0.857339801     -0.412962248
H       0.544306720      0.831458026      2.341675715
H      -0.601048246     -0.636218327      2.539632940
H      -0.740950173      0.569671953     -0.454615624
           6
  t=        34.50000    4    1
C       0.005891028     -0.003502772     -0.849729498
N       0.018375186      0.015751034      1.957560635
H       0.479138041     -0.894509596     -0.393923202
H       0.520188759      0.814714616      2.411290414
H      -0.579363317     -0.643566762      2.602571126
H      -0.745323133      0.546167702     -0.429356399
           6
  t=        35.00000    4    1
C       0.009735765     -0.000415762     -0.859201569
N       0.018512018      0.018642262      1.953110960
H       0.442456061     -0.930909908     -0.377039675
H       0.493330075      0.794521776      2.481843965
H      -0.552868941     -0.644922590      2.662866985
H      -0.755955283      0.527187062     -0.402481423
           6
  t=        35.50000    4    1
C       0.014032533      0.002121649     -0.868413322
N       0.018476432      0.021344946      1.949004876
H       0.405030980     -0.964907227     -0.363523810
H       0.464152685      0.771051497      2.551927123
H      -0.521384304     -0.640136591      2.718444077
H      -0.771502497      0.512102728     -0.374923159
           6
  t=        36.00000    4    1
C       0.018615260      0.004075940     -0.877171167
N       0.018261225      0.023863382      1.945484562
H       0.366925792     -0.995189618     -0.354381728
H       0.433061376      0.744559963      2.619950292
H      -0.485226129     -0.629549034      2.767558382
H      -0.790038366      0.500026258     -0.348011837
           6
  t=        36.50000    4    1
C       0.023287770      0.005440742     -0.885290155
N       0.017882598      0.026219083      1.942768022
H       0.328420297     -1.020796133     -0.350385707
H       0.400484676      0.715455669      2.684275311
H      -0.445056797     -0.613893737      2.808852985
H      -0.809498118      0.490098999     -0.323211268
           6
  t=        37.00000    4    1
C       0.027857808      0.006221089     -0.892612570
N       0.017369726      0.028441619      1.941035605
H       0.289931249     -1.041096665     -0.352079832
H       0.366897706      0.684348544      2.743363492
H      -0.401762147     -0.594217365      2.841390082
H      -0.828004001      0.481656752     -0.301884639
           6
  t=        37.50000    4    1
C       0.032155880      0.006426513     -0.899017555
N       0.016758962      0.030565097      1.940416645
H       0.251949607     -1.055756823     -0.359800250
H       0.332809116      0.652045915      2.795907261
H      -0.356359000     -0.571823468      2.864697487
H      -0.844025755      0.474273961     -0.285152047
           6
  t=        38.00000    4    1
C       0.036043323      0.006070105     -0.904424217
N       0.016100793      0.032646315      1.940951985
H       0.214986424     -1.064706925     -0.373702022
H       0.298596007      0.619277951      2.840952806
H      -0.309929606     -0.548235951      2.879160146
H      -0.856419770      0.467729643     -0.273820238
           6
  t=        38.50000    4    1
C       0.039410184      0.005185463     -0.908813508
N       0.015396046      0.034664631      1.942733332
H       0.179648866     -1.068215267     -0.393457121
H       0.265163177      0.587765503      2.877764330
H      -0.263453665     -0.524981362      2.884025454
H      -0.864420582      0.461984549     -0.268229857
           6
  t=        39.00000    4    1
C       0.042171282      0.003806462     -0.912173869
N       0.014674256      0.036647815      1.945722435
H       0.146460849     -1.066728748     -0.418849079
H       0.233046633      0.558947271      2.906133485
H      -0.217909267     -0.503917098      2.879932998
H      -0.867506141      0.457115086     -0.268634749
           6
  t=        39.50000    4    1
C       0.044265287      0.001984544     -0.914524567
N       0.013968854      0.038636762      1.949813938
H       0.115907124     -1.061008372     -0.449518993
H       0.202672062      0.534373309      2.926274225
H      -0.174190804     -0.487184786      2.868082664
H      -0.865426780      0.453293133     -0.275114430
           6
  t=        40.00000    4    1
C       0.045655998     -0.000206737     -0.915914312
N       0.013310836      0.040687663      1.954850107
H       0.088413870     -1.052157677     -0.484953284
H       0.174319181      0.515660330      2.938674244
H      -0.133009520     -0.477202304      2.850120349
H      -0.858176751      0.450766819     -0.287544433
           6
  t=        40.50000    4    1
C       0.046335287     -0.002668159     -0.916420736
N       0.012724944      0.042872646      1.960638425
H       0.064321718     -1.041662926     -0.524494635
H       0.148055253      0.504363142      2.943987669
H      -0.094774195     -0.476544534      2.828001120
H      -0.846002207      0.449858918     -0.305592067
           6
  t=        41.00000    4    1
C       0.046328597     -0.005275722     -0.916148902
N       0.012225040      0.045273743      1.966978891
H       0.043854078     -1.031393826     -0.567378305
H       0.123679221      0.501735307      2.942919489
H      -0.059470836     -0.487620823      2.803725482
H      -0.829434997      0.450978673     -0.328697671
           6
  t=        41.50000    4    1
C       0.045701847     -0.007890325     -0.915227003
N       0.011810842      0.047966405      1.973700433
H       0.027087509     -1.023511211     -0.612807872
H       0.100737456      0.508456441      2.936126316
H      -0.026633112     -0.512174179      2.778932434
H      -0.809345388      0.454645750     -0.356049997
           6
  t=        42.00000    4    1
C       0.044566982     -0.010380759     -0.913797675
N       0.011469311      0.050991671      1.980698079
H       0.013937245     -1.020223595     -0.660071142
H       0.078637240      0.524483211      2.924176647
H       0.004524919     -0.550747206      2.754422990
H      -0.786993554      0.461522066     -0.386573889
           6
  t=        42.50000    4    1
C       0.043082043     -0.012659868     -0.912005306
N       0.011182359      0.054325144      1.987950482
H       0.004167866     -1.023377378     -0.708662690
H       0.056804046      0.549104116      2.907602978
H       0.034843729     -0.602307470      2.729865514
H      -0.764040470      0.472434358     -0.418959815
           6
  t=        43.00000    4    1
C       0.041439752     -0.014721329     -0.909981983
N       0.010938270      0.057864259      1.995492278
H      -0.002572099     -1.033997787     -0.758348900
H       0.034802478      0.581085416      2.887069606
H       0.064949123     -0.664216480      2.704059022
H      -0.742457020      0.488352849     -0.451813222
           6
  t=        43.50000    1    1
C       0.039842878     -0.016660544     -0.907835950
N       0.010737986      0.061427886      2.003385586
H      -0.006695039     -1.051910808     -0.809093515
H       0.012389286      0.618994757      2.863314911
H       0.095083164     -0.732564137      2.675302023
H      -0.724257017      0.510278418     -0.483781514
           6
  t=        44.00000    4    1
C       0.038320388     -0.018667278     -0.905616389
N       0.010562723      0.064980713      2.011655616
H      -0.009846169     -1.073265922     -0.861553789
H      -0.010793845      0.659949991      2.837824671
H       0.125880101     -0.803472027      2.643718004
H      -0.708155072      0.536114401     -0.515581368
           6
  t=        44.50000    4    1
C       0.037341240     -0.020762319     -0.903511189
N       0.010462078      0.068097309      2.020156769
H      -0.012012969     -1.100257834     -0.913932030
H      -0.034070271      0.702407911      2.811397950
H       0.155946779     -0.870382108      2.607866010
H      -0.699720166      0.569199271     -0.544108419
           6
  t=        45.00000    4    1
C       0.036727060     -0.023337235     -0.901397946
N       0.010463092      0.070662483      2.028920128
H      -0.012718626     -1.128330973     -0.967218516
H      -0.057573152      0.746231739      2.784501751
H       0.185014570     -0.931233879      2.567211256
H      -0.697279160      0.609316614     -0.570193941
           6
  t=        45.50000    4    1
C       0.036393161     -0.026489382     -0.899250040
N       0.010585092      0.072566633      2.037844853
H      -0.012271361     -1.154913803     -1.020956858
H      -0.081062481      0.790000247      2.757795263
H       0.212547976     -0.983125125      2.522403260
H      -0.699488516      0.655095918     -0.594518875
           6
  t=        46.00000    4    1
C       0.036193155     -0.030217707     -0.897035734
N       0.010838506      0.073757103      2.046820912
H      -0.010948357     -1.177833031     -1.074540985
H      -0.104239945      0.832311532      2.731705565
H       0.238068872     -1.023967674      2.474464289
H      -0.704293127      0.704396725     -0.617987716
           6
  t=        46.50000    4    1
C       0.035966459     -0.034449480     -0.894738076
N       0.011223412      0.074229964      2.055741517
H      -0.008999535     -1.195422170     -1.127288918
H      -0.126756999      0.871784461      2.706451982
H       0.261185406     -1.052373051      2.424597051
H      -0.709488813      0.754733800     -0.641422552
           6
  t=        47.00000    4    1
C       0.035573881     -0.039074780     -0.892363047
N       0.011729966      0.074017415      2.064508336
H      -0.006656144     -1.206514286     -1.178510075
H      -0.148226197      0.907097523      2.682112840
H       0.281599320     -1.067514174      2.374049647
H      -0.713139381      0.803678463     -0.665402939
           6
  t=        47.50000    4    1
C       0.034914171     -0.043973064     -0.889937459
N       0.012339919      0.073175076      2.073032725
H      -0.004139406     -1.210380760     -1.227556309
H      -0.168240932      0.937062474      2.658694969
H       0.299107868     -1.069019725      2.324031506
H      -0.713768352      0.849110904     -0.690242350
           6
  t=        48.00000    4    1
C       0.033925584     -0.049027819     -0.887500803
N       0.013028180      0.071773509      2.081236375
H      -0.001665371     -1.206659692     -1.273864758
H      -0.186400447      0.960699492      2.636177334
H       0.313611642     -1.056928146      2.275662390
H      -0.710377240      0.889319806     -0.716044149
           6
  t=        48.50000    4    1
C       0.032579201     -0.054132574     -0.885095628
N       0.013763119      0.069896515      2.089052448
H       0.000558625     -1.195291263     -1.316994052
H      -0.202334686      0.977297933      2.614527088
H       0.325140518     -1.031720969      2.229940143
H      -0.702374817      0.923005412     -0.742779386
           6
  t=        49.00000    4    1
C       0.030869239     -0.059191972     -0.882758902
N       0.014504436      0.067648208      2.096426918
H       0.002347283     -1.176471340     -1.356656110
H      -0.215727259      0.986459031      2.593703702
H       0.333911157     -0.994460332      2.187714287
H      -0.689480015      0.949242495     -0.770354313
           6
  t=        49.50000    4    1
C       0.028803452     -0.064120408     -0.880515927
N       0.015196955      0.065169963      2.103319645
H       0.003558418     -1.150627233     -1.392739258
H      -0.226336318      0.988132348      2.573669743
H       0.340437288     -0.947059140      2.149652482
H      -0.671631936      0.967438125     -0.798651838
           6
  t=        50.00000    4    1
C       0.026395841     -0.068839401     -0.878376876
N       0.015758818      0.062666261      2.109705578
H       0.004114075     -1.118417449     -1.425322513
H      -0.234015958      0.982663886      2.554422347
H       0.345715714     -0.892689629      2.116179414
H      -0.648924670      0.977301458     -0.827545579
           6
  t=        50.50000    4    1
C       0.023662919     -0.073274778     -0.876334763
N       0.016064628      0.060430879      2.115577821
H       0.004013877     -1.080751071     -1.454686437
H      -0.238742320      0.970871663      2.536048054
H       0.351484790     -0.836228245      2.087361586
H      -0.621574370      0.978834965     -0.856895382
           6
  t=        51.00000    4    1
C       0.020623433     -0.077355538     -0.874362939
N       0.015931442      0.058845430      2.120953116
H       0.003338110     -1.038812042     -1.481327876
H      -0.240645786      0.954156882      2.518793026
H       0.360449108     -0.784355904      2.062737896
H      -0.589916874      0.972354659     -0.886539393
           6
  t=        51.50000    4    1
C       0.017300598     -0.081016849     -0.872411416
N       0.015132506      0.058295628      2.125872483
H       0.002242756     -0.994066252     -1.505976590
H      -0.240048746      0.934631618      2.503133906
H       0.376125856     -0.744534248      2.041215002
H      -0.554428757      0.958544806     -0.916296284
           6
  t=        52.00000    4    1
C       0.013726099     -0.084210197     -0.870403638
N       0.013472132      0.058968927      2.130378988
H       0.000946986     -0.948219608     -1.529595187
H      -0.237495093      0.915206027      2.489822546
H       0.401834251     -0.722292353      2.021311263
H      -0.515762861      0.938548053     -0.945983565
           6
  t=        52.50000    4    1
C       0.009946333     -0.086922526     -0.868239020
N       0.010904256      0.060641737      2.134468070
H      -0.000293631     -0.903103938     -1.553326986
H      -0.233718229      0.899482499      2.479859837
H       0.439011510     -0.718168195      2.001880511
H      -0.474790950      0.914082982     -0.975446945
           6
  t=        53.00000    4    1
C       0.006028783     -0.089202653     -0.865803709
N       0.007583110      0.062694147      2.138057143
H      -0.001225559     -0.860481665     -1.578361540
H      -0.229459749      0.891245845      2.474315991
H       0.486315682     -0.727395951      1.982752583
H      -0.432629505      0.887555880     -1.004605038
           6
  t=        53.50000    4    1
C       0.002061499     -0.091184618     -0.862986371
N       0.003776833      0.064388001      2.141022495
H      -0.001627523     -0.821794445     -1.605712429
H      -0.225130185      0.893481916      2.473952827
H       0.540476236     -0.742777075      1.964632864
H      -0.390592724      0.862076226     -1.033518224
           6
  t=        54.00000    4    1
C      -0.001859633     -0.093087702     -0.859696418
N      -0.000266285      0.065162461      2.143272581
H      -0.001326870     -0.787942299     -1.635955248
H      -0.220495687      0.907295079      2.478797752
H       0.597834127     -0.757695752      1.948525630
H      -0.350019601      0.841227262     -1.062449253
           6
  t=        54.50000    4    1
C      -0.005654507     -0.095173658     -0.855884542
N      -0.004389587      0.064759048      2.144792865
H      -0.000211872     -0.759194076     -1.669025629
H      -0.214648323      0.931450125      2.487976267
H       0.655308213     -0.767392077      1.935287390
H      -0.311979111      0.828461205     -1.091829623
           6
  t=        55.00000    4    1
C      -0.009283425     -0.097664003     -0.851564096
N      -0.008522386      0.063181736      2.145640942
H       0.001757370     -0.735272145     -1.704176450
H      -0.206317708      0.962891941      2.499939753
H       0.710629536     -0.768923324      1.925476409
H      -0.276967425      0.826195125     -1.122057351
           6
  t=        55.50000    4    1
C      -0.012756969     -0.100656414     -0.846826589
N      -0.012638884      0.060587019      2.145913088
H       0.004546352     -0.715560171     -1.740115925
H      -0.194299961      0.997803978      2.512906738
H       0.762205139     -0.760693476      1.919382504
H      -0.244793362      0.835021902     -1.153180691
           6
  t=        56.00000    4    1
C      -0.016122155     -0.104092733     -0.841839879
N      -0.016720880      0.057185831      2.145711208
H       0.008054860     -0.699330862     -1.775254101
H      -0.177752126      1.032520972      2.525236882
H       0.808903043     -0.742004327      1.917110619
H      -0.214760830      0.853558005     -1.184671435
           6
  t=        56.50000    4    1
C      -0.019434583     -0.107794280     -0.836823428
N      -0.020738732      0.053187283      2.145124224
H       0.012132794     -0.685912292     -1.807955620
H      -0.156280622      1.063996916      2.535613432
H       0.849885307     -0.712743137      1.918652295
H      -0.186025156      0.879031808     -1.215462146
           6
  t=        57.00000    4    1
C      -0.022735535     -0.111530070     -0.832010804
N      -0.024647612      0.048777504      2.144223057
H       0.016599087     -0.674770991     -1.836727464
H      -0.129897304      1.089913873      2.543072037
H       0.884516546     -0.673197990      1.923924353
H      -0.157889375      0.908179420     -1.244202697
           6
  t=        57.50000    1    1
C      -0.026042783     -0.115075118     -0.827615828
N      -0.028391742      0.044118319      2.143064045
H       0.021256941     -0.665530786     -1.860332025
H      -0.098940997      1.108622802      2.546955745
H       0.912344089     -0.623979154      1.932769715
H      -0.129928568      0.937956681     -1.269553469
           6
  t=        58.00000    1    1
C      -0.029430357     -0.118338274     -0.823815455
N      -0.031782828      0.039426656      2.141611222
H       0.026000053     -0.657686038     -1.878178181
H      -0.064878477      1.118557505      2.547870041
H       0.932619054     -0.566132894      1.945747670
H      -0.101555532      0.966370996     -1.290663667
           6
  t=        58.50000    1    1
C      -0.032801179     -0.121071417     -0.820742802
N      -0.034895085      0.034760520      2.139987353
H       0.030537687     -0.651422865     -1.889212817
H      -0.027589960      1.119501343      2.544545676
H       0.945832258     -0.500656804      1.961740018
H      -0.073214859      0.991062466     -1.306319729
           6
  t=        59.00000    1    1
C      -0.036126800     -0.123164184     -0.818486916
N      -0.037690556      0.030244915      2.138230455
H       0.034682820     -0.646748178     -1.893037155
H       0.011976976      1.111224901      2.536920366
H       0.952396292     -0.429052288      1.980299218
H      -0.045050671      1.010717898     -1.315878523
           6
  t=        59.50000    1    1
C      -0.039374599     -0.124536507     -0.817097311
N      -0.040157302      0.025996656      2.136375069
H       0.038262873     -0.643758904     -1.889513673
H       0.052714326      1.093939940      2.525109919
H       0.953247426     -0.353141822      2.000860625
H      -0.017272964      1.024468514     -1.318919124
           6
  t=        60.00000    1    1
C      -0.042511131     -0.125131120     -0.816586967
N      -0.042318880      0.022114846      2.134449847
H       0.041124203     -0.642632429     -1.878765223
H       0.093367306      1.068391380      2.509435906
H       0.949962764     -0.275028525      2.022748100
H       0.009878695      1.031791060     -1.315207646
           6
  t=        60.50000    1    1
C      -0.045504386     -0.124907807     -0.816933373
N      -0.044236889      0.018662504      2.132471725
H       0.043136585     -0.643627450     -1.861186446
H       0.132561052      1.036004711      2.490472519
H       0.944768673     -0.196987868      2.045206843
H       0.036157750      1.032439775     -1.304672225
           6
  t=        61.00000    1    1
C      -0.048325787     -0.123840146     -0.818077270
N      -0.046000238      0.015642207      2.130437907
H       0.044199780     -0.647093345     -1.837466639
H       0.168869715      0.999041831      2.469090772
H       0.940322721     -0.121284545      2.067469207
H       0.061327815      1.026416405     -1.287393633
           6
  t=        61.50000    1    1
C      -0.050952336     -0.121914891     -0.819919938
N      -0.047698594      0.012975960      2.128319074
H       0.044251349     -0.653485835     -1.808613588
H       0.200949786      0.960671102      2.446463640
H       0.939211598     -0.049962217      2.088841810
H       0.085180142      1.013977969     -1.263611769
           6
  t=        62.00000    1    1
C      -0.053369191     -0.119134682     -0.822320965
N      -0.049389750      0.010504633      2.126059432
H       0.043273969     -0.663381806     -1.775956704
H       0.227703752      0.924858621      2.423998271
H       0.943333976      0.015272932      2.108768938
H       0.107557206      0.995683846     -1.233745289
           6
  t=        62.50000    1    1
C      -0.055572748     -0.115525947     -0.825099433
N      -0.051078821      0.008017901      2.123587692
H       0.041297461     -0.677473466     -1.741097138
H       0.248378170      0.895984240      2.403170463
H       0.953512672      0.073019444      2.126841607
H       0.128387952      0.972484895     -1.198423500
           6
  t=        63.00000    4    1
C      -0.057574519     -0.111153795     -0.828043604
N      -0.052739372      0.005314144      2.120839211
H       0.038391594     -0.696515655     -1.705766247
H       0.262599971      0.877927332      2.385195616
H       0.969751872      0.122260235      2.142823815
H       0.147741287      0.945850265     -1.158517408
           6
  t=        63.50000    4    1
C      -0.059463404     -0.106163500     -0.831159211
N      -0.054221362      0.002315064      2.117810398
H       0.034770173     -0.721594626     -1.671155183
H       0.269941641      0.872851274      2.371501072
H       0.990665271      0.162469929      2.156678173
H       0.166190998      0.918045832     -1.114107645
           6
  t=        64.00000    4    1
C      -0.061235736     -0.100745381     -0.834024549
N      -0.055401081     -0.001043196      2.114469695
H       0.030397619     -0.752765419     -1.638882253
H       0.269966551      0.882298598      2.361612423
H       1.014688072      0.192596936      2.168187105
H       0.184011562      0.891789091     -1.067466618
           6
  t=        64.50000    4    1
C      -0.062969460     -0.095197122     -0.836486191
N      -0.056111299     -0.004654821      2.110852815
H       0.025326717     -0.789907529     -1.609477314
H       0.262248661      0.904895601      2.354989181
H       1.039910043      0.212602185      2.177446911
H       0.202090999      0.870446523     -1.019943323
           6
  t=        65.00000    4    1
C      -0.064757532     -0.089872187     -0.838474778
N      -0.056177723     -0.008316716      2.107022315
H       0.019569728     -0.832214758     -1.582711823
H       0.246385668      0.937539351      2.350668490
H       1.064295347      0.222823677      2.184616296
H       0.221540307      0.857363628     -0.972657171
           6
  t=        65.50000    4    1
C      -0.066685768     -0.085098212     -0.840009750
N      -0.055445229     -0.011781881      2.103050852
H       0.013115622     -0.878223866     -1.557769709
H       0.222163304      0.976282976      2.347563981
H       1.085882703      0.223832054      2.189859176
H       0.243412519      0.854922624     -0.926279858
           6
  t=        66.00000    4    1
C      -0.068802256     -0.081081368     -0.841175471
N      -0.053796388     -0.014806529      2.099008411
H       0.005958773     -0.926034283     -1.533557604
H       0.189651986      1.017124023      2.344684148
H       1.102946551      0.216296365      2.193312028
H       0.268309367      0.863623887     -0.881017615
           6
  t=        66.50000    4    1
C      -0.071096653     -0.077857859     -0.842078142
N      -0.051159600     -0.017179675      2.094955610
H      -0.001876554     -0.973610584     -1.508998585
H       0.149229404      1.056482907      2.341233568
H       1.114088740      0.200916413      2.195081251
H       0.296109078      0.881811362     -0.836836036
           6
  t=        67.00000    4    1
C      -0.073504273     -0.075322118     -0.842805421
N      -0.047509360     -0.018733308      2.090941758
H      -0.010325733     -1.019037560     -1.483217906
H       0.101535959      1.091369362      2.336628846
H       1.118288933      0.178398469      2.195257713
H       0.326002351      0.906262486     -0.793758759
           6
  t=        67.50000    4    1
C      -0.075974104     -0.073333589     -0.843483290
N      -0.042834161     -0.019331452      2.087030688
H      -0.019141522     -1.060688291     -1.455806209
H       0.047779860      1.119225320      2.330850999
H       1.114307780      0.149746854      2.194160877
H       0.357005830      0.933341189     -0.751882474
           6
  t=        68.00000    4    1
C      -0.078438595     -0.071697601     -0.844139882
N      -0.037190181     -0.018911452      2.083235255
H      -0.028031647     -1.097333160     -1.426289342
H      -0.010890889      1.138338195      2.323661308
H       1.101838557      0.115834939      2.192020941
H       0.387962210      0.959468593     -0.711516448
           6
  t=        68.50000    4    1
C      -0.080837411     -0.070244820     -0.844785097
N      -0.030684018     -0.017456127      2.079550044
H      -0.036723199     -1.128104330     -1.394326227
H      -0.073164093      1.147496998      2.314951596
H       1.081118532      0.077654151      2.189136676
H       0.417811817      0.981741493     -0.672999260
           6
  t=        69.00000    4    1
C      -0.083119015     -0.068843209     -0.845416426
N      -0.023483158     -0.014988730      2.075950397
H      -0.044999342     -1.152449734     -1.359692707
H      -0.137601563      1.145925976      2.304730370
H       1.053102078      0.036313658      2.185899813
H       0.445658722      0.998025359     -0.636642561
           6
  t=        69.50000    4    1
C      -0.085239635     -0.067395368     -0.846020869
N      -0.015830263     -0.011566366      2.072390470
H      -0.052709146     -1.170084129     -1.322280857
H      -0.202679716      1.133246738      2.293120458
H       1.019692464     -0.007008284      2.182829998
H       0.470775589      1.006868778     -0.602714560
           6
  t=        70.00000    4    1
C      -0.087162587     -0.065830117     -0.846574977
N      -0.008055081     -0.007270019      2.068799883
H      -0.059757927     -1.180958069     -1.282101741
H      -0.266843346      1.109470716      2.280366441
H       0.983957588     -0.051190675      2.180620146
H       0.492589477      1.007367577     -0.571443009
           6
  t=        70.50000    4    1
C      -0.088858300     -0.064093247     -0.847044156
N      -0.000568688     -0.002190439      2.065080642
H      -0.066090285     -1.185247302     -1.239286145
H      -0.328590389      1.075025222      2.266844655
H       0.950132823     -0.095389458      2.180169645
H       0.510667088      0.999041568     -0.543023207
           6
  t=        71.00000    4    1
C      -0.090304753     -0.062139496     -0.847382691
N       0.006186671      0.003586678      2.061106976
H      -0.071675539     -1.183363537     -1.194075701
H      -0.386612186      1.030800922      2.253080441
H       0.923061983     -0.139291499      2.182561700
H       0.524707750      0.981750429     -0.517618842
           6
  t=        71.50000    4    1
C      -0.091488225     -0.059927335     -0.847532424
N       0.011850214      0.009980997      2.056735549
H      -0.076499370     -1.175973549     -1.146824184
H      -0.439999696      0.978218706      2.239749788
H       0.906832661     -0.183190931      2.188910943
H       0.534550016      0.955655918     -0.495367726
           6
  t=        72.00000    4    1
C      -0.092385618     -0.057409241     -0.847437049
N       0.016244787      0.016836236      2.051862560
H      -0.080644132     -1.164004416     -1.097925676
H      -0.488201667      0.919525693      2.227439236
H       0.903256270     -0.227239991      2.199805288
H       0.540099949      0.921195822     -0.476278372
           6
  t=        72.50000    4    1
C      -0.093006035     -0.054550980     -0.847039620
N       0.019525771      0.023966461      2.046390484
H      -0.084154176     -1.148726181     -1.047888789
H      -0.531722946      0.857359349      2.217010584
H       0.910616116     -0.271508564      2.215498177
H       0.541572928      0.879248396     -0.460280408
           6
  t=        73.00000    4    1
C      -0.093382158     -0.051331388     -0.846284902
N       0.022090962      0.031090836      2.040268113
H      -0.087081555     -1.131678015     -0.997319074
H      -0.572037675      0.794862595      2.209375332
H       0.924747032     -0.315271090      2.235581071
H       0.539522322      0.831134382     -0.447217453
           6
  t=        73.50000    4    1
C      -0.093581377     -0.047756638     -0.845145240
N       0.024446912      0.037878241      2.033478028
H      -0.089492568     -1.114597561     -0.946810582
H      -0.611426678      0.735228206      2.205487996
H       0.940756417     -0.357158070      2.259220870
H       0.534952063      0.778703323     -0.436704090
           6
  t=        74.00000    4    1
C      -0.093714281     -0.043880917     -0.843645169
N       0.027075584      0.044041885      2.026017328
H      -0.091494972     -1.099255775     -0.896832669
H      -0.652410938      0.680871659      2.206301672
H       0.954339487     -0.395633199      2.285500507
H       0.529415889      0.724404399     -0.427974579
           6
  t=        74.50000    4    1
C      -0.093936415     -0.039825242     -0.841873991
N       0.030332155      0.049431086      2.017887512
H      -0.093271767     -1.087206378     -0.847667951
H      -0.696802906      0.632573053      2.212657588
H       0.962268160     -0.429411983      2.313689053
H       0.525054400      0.671261287     -0.419814107
           6
  t=        75.00000    4    1
C      -0.094440224     -0.035782222     -0.839976962
N       0.034388870      0.054069663      2.009099756
H      -0.095098676     -1.079515192     -0.799439312
H      -0.744859795      0.589182556      2.225069507
H       0.962334520     -0.457690752      2.343305247
H       0.524506618      0.622648365     -0.410558057
           6
  t=        75.50000    4    1
C      -0.095424007     -0.031984658     -0.838115200
N       0.039231819      0.058109688      1.999700048
H      -0.097325475     -1.076572641     -0.752223464
H      -0.795083157      0.548249234      2.243434619
H       0.953182730     -0.480132922      2.373946707
H       0.530534125      0.581729399     -0.398345071
           6
  t=        76.00000    4    1
C      -0.097026767     -0.028635915     -0.836407416
N       0.044709629      0.061742231      1.989774298
H      -0.100348878     -1.078065006     -0.706145440
H      -0.844756060      0.507088428      2.267049665
H       0.934157862     -0.496712253      2.405217603
H       0.545229921      0.550615724     -0.381731225
           6
  t=        76.50000    4    1
C      -0.099259375     -0.025846165     -0.834874761
N       0.050605148      0.065133819      1.979439083
H      -0.104581136     -1.083099289     -0.661427093
H      -0.890805280      0.463555301      2.294789524
H       0.905177576     -0.507608857      2.436712664
H       0.569162001      0.529737316     -0.360332191
           6
  t=        77.00000    4    1
C      -0.101981652     -0.023619427     -0.833421847
N       0.056689774      0.068401934      1.968830234
H      -0.110414505     -1.090417074     -0.618389733
H      -0.930466263      0.416338867      2.325283374
H       0.866650043     -0.513161499      2.468015227
H       0.601057087      0.517901009     -0.335062252
           6
  t=        77.50000    4    1
C      -0.104945597     -0.021892540     -0.831867915
N       0.062749031      0.071616877      1.958091532
H      -0.118186468     -1.098621061     -0.577425447
H      -0.961594899      0.364929606      2.357046526
H       0.819432190     -0.513856420      2.498723731
H       0.638278739      0.512976440     -0.307793057
           6
  t=        78.00000    4    1
C      -0.107870534     -0.020586057     -0.830003149
N       0.068588586      0.074814491      1.947363845
H      -0.128154636     -1.106359198     -0.538953590
H      -0.982731153      0.309459378      2.388567804
H       0.764805503     -0.510338280      2.528507993
H       0.677701181      0.512680393     -0.280719412
           6
  t=        78.50000    4    1
C      -0.110503657     -0.019634752     -0.827635086
N       0.074033269      0.078009604      1.936774787
H      -0.140486214     -1.112446353     -0.503378081
H      -0.993055910      0.250530888      2.418370122
H       0.704438794     -0.503421957      2.557182917
H       0.716427477      0.515057240     -0.255839954
           6
  t=        79.00000    4    1
C      -0.112648212     -0.018994638     -0.824611062
N       0.078928120      0.081205391      1.926430047
H      -0.155260338     -1.115927966     -0.471054768
H      -0.992332856      0.189075734      2.445059779
H       0.640307455     -0.494078059      2.584769125
H       0.752135398      0.518623548     -0.234711960
           6
  t=        79.50000    4    1
C      -0.114168480     -0.018637512     -0.820822478
N       0.083146457      0.084396888      1.916407413
H      -0.172473092     -1.116106722     -0.442270897
H      -0.980875363      0.126237996      2.467379416
H       0.574545612     -0.483361155      2.611495097
H       0.783144470      0.522325688     -0.218393234
           6
  t=        80.00000    4    1
C      -0.114991797     -0.018521780     -0.816219248
N       0.086554341      0.087517210      1.906790361
H      -0.191921224     -1.112618515     -0.417067957
H      -0.959189031      0.063532601      2.484101733
H       0.509428857     -0.472022626      2.637678031
H       0.808477232      0.525470063     -0.207688347
           6
  t=        80.50000    4    1
C      -0.115059697     -0.018633439     -0.810756072
N       0.089103758      0.090531198      1.897630428
H      -0.213546553     -1.105176022     -0.395631597
H      -0.928638311      0.002290774      2.494271289
H       0.447037644     -0.460882648      2.663634243
H       0.827330487      0.527580083     -0.203028012
           6
  t=        81.00000    4    1
C      -0.114345814     -0.018948383     -0.804415781
N       0.090799461      0.093387164      1.888971225
H      -0.237240263     -1.093758780     -0.378014570
H      -0.891078709     -0.056263971      2.497199259
H       0.389187024     -0.450427388      2.689504473
H       0.839255874      0.528329075     -0.204621746
           6
  t=        81.50000    4    1
C      -0.112847393     -0.019431984     -0.797203530
N       0.091697405      0.096021555      1.880849993
H      -0.262871540     -1.078586073     -0.364153242
H      -0.848823836     -0.111133564      2.492506496
H       0.337420100     -0.440754479      2.715183373
H       0.844082858      0.527506625     -0.212504751
           6
  t=        82.00000    4    1
C      -0.110582182     -0.020038461     -0.789143848
N       0.091905647      0.098376460      1.873276591
H      -0.290302573     -1.060105242     -0.353876386
H      -0.804557685     -0.161743648      2.480274793
H       0.292908291     -0.431621898      2.740452361
H       0.841896115      0.525003200     -0.226556396
           6
  t=        82.50000    4    1
C      -0.107591441     -0.020718592     -0.780292759
N       0.091544064      0.100385751      1.866277330
H      -0.319425632     -1.038954104     -0.346888619
H      -0.761311281     -0.207732435      2.460543918
H       0.257027030     -0.422471001      2.764875974
H       0.833069198      0.520868928     -0.246374863
           6
  t=        83.00000    4    1
C      -0.103941550     -0.021416133     -0.770723958
N       0.090773549      0.102031252      1.859829423
H      -0.350150712     -1.016009235     -0.342792071
H      -0.722322042     -0.249440193      2.433840901
H       0.230748618     -0.412678387      2.788205086
H       0.818332081      0.515280102     -0.271441860
           6
  t=        83.50000    4    1
C      -0.099734228     -0.022081243     -0.760539232
N       0.089767012      0.103322797      1.853896360
H      -0.382433552     -0.992303651     -0.341098124
H      -0.690759013     -0.287752885      2.400805732
H       0.214806791     -0.401461458      2.810257742
H       0.798884466      0.508643017     -0.300984768
           6
  t=        84.00000    4    1
C      -0.095121197     -0.022685994     -0.749870124
N       0.088688800      0.104291288      1.848448509
H      -0.416264947     -0.968945768     -0.341271234
H      -0.669248469     -0.323994552      2.362047092
H       0.209511005     -0.387882397      2.830785213
H       0.776557042      0.501690398     -0.333921139
           6
  t=        84.50000    4    1
C      -0.090322796     -0.023242359     -0.738877105
N       0.087666909      0.104969098      1.843493055
H      -0.451635930     -0.947024318     -0.342792706
H      -0.659370969     -0.359596028      2.317952857
H       0.214638149     -0.370890900      2.849250174
H       0.753989598      0.495584319     -0.368809329
           6
  t=        85.00000    4    1
C      -0.085660185     -0.023813478     -0.727756016
N       0.086757439      0.105351294      1.839121417
H      -0.488446534     -0.927629503     -0.345213795
H      -0.661358203     -0.395493752      2.268290231
H       0.229657265     -0.349322088      2.864545684
H       0.734889349      0.492006825     -0.403696709
           6
  t=        85.50000    4    1
C      -0.081970459     -0.024391341     -0.717075946
N       0.085738665      0.105055579      1.836039525
H      -0.526183759     -0.915003984     -0.347225350
H      -0.674297381     -0.429148045      2.207452155
H       0.257178536     -0.319359646      2.871740620
H       0.728268181      0.494061009     -0.432386649
           6
  t=        86.00000    4    1
C      -0.079083028     -0.025174864     -0.706555899
N       0.084731983      0.104315430      1.833850162
H      -0.564898956     -0.906286619     -0.349714307
H      -0.695752298     -0.462744339      2.139740633
H       0.292661783     -0.282768189      2.872504315
H       0.732563538      0.501960203     -0.457790236
           6
  t=        86.50000    4    1
C      -0.076969406     -0.026207902     -0.696067714
N       0.083693441      0.103177251      1.832435813
H      -0.604035058     -0.900285372     -0.352987075
H      -0.722731965     -0.496179529      2.066894739
H       0.333432503     -0.240533554      2.866885389
H       0.747173363      0.515272542     -0.481281966
           6
  t=        87.00000    4    1
C      -0.075509191     -0.027412202     -0.685519028
N       0.082505475      0.101615804      1.831686055
H      -0.643101134     -0.896322907     -0.356858145
H      -0.751682971     -0.528419262      1.990430367
H       0.377249799     -0.193660672      2.854871273
H       0.770494079      0.532710166     -0.504116159
           6
  t=        87.50000    4    1
C      -0.074570090     -0.028767113     -0.674765351
N       0.081073692      0.099649547      1.831474296
H      -0.681073548     -0.892954500     -0.361992909
H      -0.779918440     -0.558371152      1.911471208
H       0.422756285     -0.143336165      2.836610825
H       0.799908914      0.552420265     -0.526861484
           6
  t=        88.00000    4    1
C      -0.073970472     -0.030162406     -0.663706792
N       0.079289014      0.097251042      1.831634645
H      -0.717184187     -0.889369625     -0.368740517
H      -0.804507317     -0.584615948      1.831731086
H       0.468466149     -0.090693444      2.812556453
H       0.832557387      0.572375224     -0.550219437
           6
  t=        88.50000    4    1
C      -0.073521022     -0.031492377     -0.652274688
N       0.077065857      0.094417186      1.831938380
H      -0.750785091     -0.884814460     -0.377371971
H      -0.823106573     -0.606023350      1.753254711
H       0.513178528     -0.036969949      2.783718605
H       0.865584419      0.590712856     -0.574613826
           6
  t=        89.00000    4    1
C      -0.073054240     -0.032670322     -0.640445460
N       0.074343476      0.091161843      1.832122645
H      -0.781360378     -0.878626323     -0.388013025
H      -0.834046969     -0.621826164      1.678204195
H       0.556044929      0.016671586      2.751515353
H       0.896502968      0.605941015     -0.600127594
           6
  t=        89.50000    4    1
C      -0.072438846     -0.033625996     -0.628233425
N       0.071080749      0.087506970      1.831922836
H      -0.808499537     -0.870296432     -0.400643030
H      -0.836285489     -0.631601603      1.608666438
H       0.596572705      0.069273126      2.717494092
H       0.923360384      0.616944742     -0.626568709
           6
  t=        90.00000    4    1
C      -0.071576352     -0.034301641     -0.615663877
N       0.067249960      0.083477600      1.831102535
H      -0.831905500     -0.859502120     -0.415171695
H      -0.829294418     -0.635215663      1.546492159
H       0.634569348      0.120128955      2.682983503
H       0.944736847      0.622937480     -0.653620832
           6
  t=        90.50000    4    1
C      -0.070387219     -0.034654334     -0.602754693
N       0.062834924      0.079099174      1.829478660
H      -0.851443493     -0.846074365     -0.431481644
H      -0.812942683     -0.632758651      1.493168839
H       0.670035802      0.168776275      2.648789599
H       0.959643345      0.623438810     -0.680938181
           6
  t=        91.00000    4    1
C      -0.068801004     -0.034657815     -0.589514591
N       0.057833405      0.074397630      1.826939329
H      -0.867169376     -0.829958889     -0.449405960
H      -0.787415012     -0.624501147      1.449710894
H       0.703054355      0.214955330      2.615020026
H       0.967430518      0.618251678     -0.708151366
           6
  t=        91.50000    4    1
C      -0.066754206     -0.034301840     -0.575944580
N       0.052264165      0.069404806      1.823451904
H      -0.879327750     -0.811202233     -0.468698806
H      -0.753218092     -0.610910396      1.416537106
H       0.733707765      0.258557265      2.581065577
H       0.967750099      0.607434411     -0.734850336
           6
  t=        92.00000    4    1
C      -0.064195281     -0.033594961     -0.562034658
N       0.046180313      0.064166859      1.819060359
H      -0.888345912     -0.789934096     -0.489026709
H      -0.711301239     -0.592745683      1.393313008
H       0.762041839      0.299606958      2.545710832
H       0.960581278      0.591311611     -0.760548738
           6
  t=        92.50000    4    1
C      -0.061109590     -0.032562534     -0.547757705
N       0.039745787      0.058797927      1.813807808
H      -0.894788775     -0.766373779     -0.510090835
H      -0.663503336     -0.571563503      1.379335724
H       0.787590652      0.337976775      2.507982707
H       0.946341632      0.570502768     -0.784791403
           6
  t=        93.00000    4    1
C      -0.057472862     -0.031245779     -0.533109485
N       0.033196105      0.053484632      1.807834601
H      -0.899400333     -0.740754080     -0.531359892
H      -0.612730438     -0.549898426      1.372727989
H       0.809903955      0.373520527      2.466810888
H       0.925570113      0.545819204     -0.807162563
           6
  t=        93.50000    4    1
C      -0.053279450     -0.029720524     -0.518090124
N       0.026872663      0.048533199      1.801338444
H      -0.903094961     -0.713253673     -0.552158095
H      -0.563282531     -0.531839903      1.370410748
H       0.828479881      0.405996556      2.421455729
H       0.899172234      0.518418806     -0.827264800
           6
  t=        94.00000    4    1
C      -0.048545242     -0.028123466     -0.502705031
N       0.021187383      0.044376804      1.794559269
H      -0.906982631     -0.683855827     -0.571558523
H      -0.520573156     -0.523157339      1.368082345
H       0.842950531      0.435099110      2.371585535
H       0.868505203      0.489968916     -0.844660947
           6
  t=        94.50000    4    1
C      -0.043297296     -0.026708130     -0.486962601
N       0.016498498      0.041504285      1.787691958
H      -0.912484898     -0.652054570     -0.588170013
H      -0.489674300     -0.530350343      1.361041009
H       0.853313566      0.460538551      2.317267850
H       0.835409631      0.462979409     -0.858715787
           6
  t=        95.00000    4    1
C      -0.037544391     -0.025919808     -0.470835919
N       0.012932361      0.040264114      1.780749553
H      -0.921448035     -0.616480198     -0.600494052
H      -0.472820806     -0.557901173      1.346274847
H       0.859930076      0.482206924      2.258996667
H       0.801954511      0.441131020     -0.868911589
           6
  t=        95.50000    8    2
C      -0.031532145     -0.025818831     -0.454051499
N       0.010391095      0.040498526      1.773789492
H      -0.933675252     -0.577771905     -0.611404014
H      -0.467939872     -0.603490270      1.325395016
H       0.862468069      0.500364993      2.197785722
H       0.770486704      0.425392986     -0.879054294
           6
  t=        96.00000    8    2
C      -0.026044853     -0.027759263     -0.440473618
N       0.008763860      0.041500393      1.770549475
H      -0.948043996     -0.539258288     -0.636112221
H      -0.464495906     -0.641211516      1.308286714
H       0.859798328      0.509727558      2.148478520
H       0.741355405      0.424421101     -0.904581972
           6
  t=        96.50000    8    2
C      -0.020581713     -0.030812031     -0.426606043
N       0.007310865      0.043285159      1.767377708
H      -0.965976893     -0.496766637     -0.659880606
H      -0.462836190     -0.686617668      1.290902641
H       0.855064536      0.515899620      2.096923122
H       0.717503186      0.432713110     -0.932923141
           6
  t=        97.00000    5    2
C      -0.015231679     -0.034860891     -0.412456035
N       0.005657113      0.045525202      1.763991235
H      -0.986512669     -0.450804158     -0.682267695
H      -0.459622164     -0.735704876      1.276021737
H       0.850198450      0.519280480      2.043730362
H       0.698967951      0.449541063     -0.963891085
           6
  t=        97.50000    5    2
C      -0.009870374     -0.039378480     -0.398029063
N       0.003735056      0.047858006      1.760334500
H      -1.008036003     -0.402680700     -0.704071437
H      -0.454459480     -0.785460520      1.263391952
H       0.846161184      0.521696150      1.989396009
H       0.682236526      0.470133876     -0.996094564
           6
  t=        98.00000    5    2
C      -0.004611759     -0.044545532     -0.383575303
N       0.001121238      0.050005083      1.756093390
H      -1.029654118     -0.351720934     -0.723797110
H      -0.444279060     -0.832122607      1.257199327
H       0.845577085      0.523197109      1.934665411
H       0.667963283      0.496025141     -1.028616455
           6
  t=        98.50000    5    2
C       0.000559355     -0.050169315     -0.369306219
N      -0.002291256      0.051742284      1.751208843
H      -1.050048710     -0.298270384     -0.740903902
H      -0.428594808     -0.873457019      1.258211332
H       0.849570797      0.524634163      1.879728644
H       0.654523800      0.525295016     -1.059616649
           6
  t=        99.00000    5    2
C       0.005636508     -0.056057224     -0.355439922
N      -0.006509728      0.052937328      1.745667003
H      -1.068025197     -0.242800350     -0.754721951
H      -0.407411282     -0.907993208      1.266658076
H       0.858382270      0.526384333      1.824548960
H       0.640666494      0.556111890     -1.087168835
           6
  t=        99.50000    5    2
C       0.010588824     -0.062025086     -0.342168130
N      -0.011445099      0.053538748      1.739469747
H      -1.082605011     -0.185924823     -0.764536389
H      -0.381068237     -0.934853224      1.282445561
H       0.871250973      0.528307884      1.769039174
H       0.625643031      0.586873747     -1.109550015
           6
  t=       100.00000    5    2
C       0.015377652     -0.067899832     -0.329632904
N      -0.016935030      0.053555335      1.732602979
H      -1.093154253     -0.128374035     -0.769641589
H      -0.350138175     -0.953642025      1.305315105
H       0.886606820      0.529888481      1.713241767
H       0.609166714      0.616249215     -1.125362270
