           6
  t=         0.00000   12    3
C      -0.001768045      0.003041991     -0.006094740
N      -0.005696915     -0.011420920      1.332554050
H       0.985787589      0.068022735     -0.341308723
H       0.931950655     -0.012733713      1.813700941
H      -0.815564187      0.127185483      1.930206474
H      -1.001967325     -0.059964684     -0.572987289
           6
  t=         0.50000   12    3
C      -0.004744056      0.002189041     -0.003823751
N      -0.007527748     -0.009473370      1.332262759
H       1.014748745      0.066753182     -0.343802998
H       0.940028816     -0.017052915      1.801167805
H      -0.801103974      0.113282135      1.929167829
H      -0.992593485     -0.057377385     -0.579914054
           6
  t=         1.00000   12    3
C      -0.007835440      0.001326732     -0.002883294
N      -0.009114543     -0.007594081      1.333615979
H       1.044361402      0.063524476     -0.351646793
H       0.943430429     -0.018696415      1.786914281
H      -0.787388712      0.097557067      1.928374434
H      -0.980466687     -0.052625026     -0.587023157
           6
  t=         1.50000    9    3
C      -0.010901553      0.000450458     -0.003576015
N      -0.010247637     -0.005755605      1.336626000
H       1.071799630      0.058489279     -0.363200008
H       0.941836214     -0.018169874      1.771403007
H      -0.776116745      0.080308888      1.928875169
H      -0.965331099     -0.045979765     -0.594033415
           6
  t=         2.00000    9    3
C      -0.013636022     -0.000429854     -0.006230099
N      -0.010956585     -0.003888581      1.341343759
H       1.096359786      0.052342653     -0.375536860
H       0.937377908     -0.016833196      1.753250816
H      -0.769715982      0.062061283      1.930649197
H      -0.949424211     -0.038382388     -0.599266712
           6
  t=         2.50000    9    3
C      -0.016010405     -0.001325293     -0.010762941
N      -0.011026989     -0.002012004      1.347511335
H       1.114602516      0.044822561     -0.389108322
H       0.929030702     -0.014247838      1.735380254
H      -0.768320708      0.042735025      1.935527471
H      -0.931465128     -0.029534196     -0.604425486
           6
  t=         3.00000    9    3
C      -0.017845519     -0.002232191     -0.017129929
N      -0.010521697     -0.000104654      1.354958531
H       1.125243651      0.036126857     -0.403081203
H       0.918252291     -0.010741153      1.718842584
H      -0.772244681      0.022406962      1.943830143
H      -0.912573915     -0.019721046     -0.609880749
           6
  t=         3.50000    9    3
C      -0.018964967     -0.003145177     -0.025204008
N      -0.009612923      0.001848840      1.363508302
H       1.127472039      0.026435210     -0.416835514
H       0.907057088     -0.006560076      1.704802542
H      -0.780969846      0.001112556      1.955297489
H      -0.894179404     -0.009188659     -0.616210415
           6
  t=         4.00000    8    2
C      -0.019203899     -0.004056916     -0.034809592
N      -0.008557922      0.003849680      1.372998151
H       1.120869616      0.015986428     -0.429923238
H       0.897803631     -0.001953871      1.694429212
H      -0.793252118     -0.020980841      1.969159368
H      -0.877854584      0.001802041     -0.624094307
           6
  t=         4.50000    8    2
C      -0.019150996     -0.005014439     -0.044678752
N      -0.007323794      0.005946612      1.382787405
H       1.110522364      0.005123095     -0.444420893
H       0.892411611      0.002773592      1.688673444
H      -0.808927515     -0.044074607      1.984699566
H      -0.864216936      0.013296381     -0.637885850
           6
  t=         5.00000    8    2
C      -0.018220645     -0.006003420     -0.055316800
N      -0.006437718      0.008154931      1.393034235
H       1.093106823     -0.007373348     -0.458192613
H       0.893020400      0.008738714      1.688395865
H      -0.824700541     -0.069230170      2.000163388
H      -0.855025851      0.026074878     -0.655007814
           6
  t=         5.50000    5    2
C      -0.016385329     -0.007018949     -0.066632415
N      -0.006099405      0.010446218      1.403699847
H       1.069001241     -0.021338642     -0.471061454
H       0.900280997      0.015806928      1.693798453
H      -0.838706639     -0.096014385      2.014396814
H      -0.850727914      0.040011111     -0.675233474
           6
  t=         6.00000    5    2
C      -0.014089995     -0.008081874     -0.078603461
N      -0.006054106      0.012846243      1.414909506
H       1.041322218     -0.036519593     -0.483976442
H       0.910758937      0.023673391      1.702076493
H      -0.851578569     -0.124391064      2.028038937
H      -0.848614132      0.055010669     -0.697452201
           6
  t=         6.50000    5    2
C      -0.011187721     -0.009163866     -0.090954152
N      -0.006616154      0.015285876      1.426410702
H       1.009886672     -0.053277920     -0.496416130
H       0.925852428      0.032676980      1.715220804
H      -0.859978243     -0.153855961      2.038729990
H      -0.850619704      0.071215407     -0.721591789
           6
  t=         7.00000    5    2
C      -0.007960809     -0.010248709     -0.103532692
N      -0.007687562      0.017750441      1.438141164
H       0.977079769     -0.071820646     -0.508974615
H       0.943413873      0.042822176      1.732416342
H      -0.863132770     -0.184200478      2.045973521
H      -0.855755182      0.088630080     -0.746688821
           6
  t=         7.50000    5    2
C      -0.004762178     -0.011304966     -0.116179694
N      -0.009114177      0.020234755      1.450033554
H       0.945855086     -0.092495021     -0.522530980
H       0.960986266      0.054070850      1.752711012
H      -0.860705708     -0.215298516      2.049540341
H      -0.862793315      0.107211672     -0.771645110
           6
  t=         8.00000    5    2
C      -0.001971594     -0.012283067     -0.128724312
N      -0.010721534      0.022745642      1.462009673
H       0.919429494     -0.115816630     -0.538168074
H       0.976248455      0.066335821      1.775148658
H      -0.852757459     -0.247140223      2.049441660
H      -0.870471677      0.126868065     -0.795380572
           6
  t=         8.50000    5    2
C       0.000069792     -0.013116813     -0.140995115
N      -0.012339038      0.025303619      1.473977992
H       0.900682372     -0.142451251     -0.556952881
H       0.987284289      0.079482473      1.798848485
H      -0.839702337     -0.279863005      2.045907711
H      -0.877647469      0.147463786     -0.816947132
           6
  t=         9.00000    5    2
C       0.001135697     -0.013732428     -0.152846217
N      -0.013814253      0.027944040      1.485834788
H       0.891376452     -0.173105791     -0.579593312
H       0.992700840      0.093335019      1.823041179
H      -0.822260048     -0.313781864      2.039366683
H      -0.883394478      0.168826841     -0.835591634
           6
  t=         9.50000    5    2
C       0.001171338     -0.014064903     -0.164183878
N      -0.015022357      0.030717088      1.497467859
H       0.891564368     -0.208332990     -0.606123543
H       0.991654948      0.107685929      1.847080507
H      -0.801382667     -0.349405959      2.030408126
H      -0.887052130      0.190755360     -0.850780372
           6
  t=        10.00000    5    2
C       0.000299158     -0.014075078     -0.174973711
N      -0.015876109      0.033685507      1.508762145
H       0.899562099     -0.248335206     -0.635820560
H       0.983847641      0.122310143      1.870443815
H      -0.778135484     -0.387425204      2.019710115
H      -0.888242204      0.213028634     -0.862202535
           6
  t=        10.50000    5    2
C      -0.001227787     -0.013758778     -0.185221142
N      -0.016339927      0.036918744      1.519607406
H       0.912517522     -0.292879804     -0.667422978
H       0.969522700      0.136981261      1.892732120
H      -0.753515457     -0.428640018      2.007919008
H      -0.886866875      0.235426184     -0.869770583
           6
  t=        11.00000    5    2
C      -0.003092586     -0.013144791     -0.194935955
N      -0.016448359      0.040482959      1.529907526
H       0.927209299     -0.341361955     -0.699512460
H       0.949481733      0.151485646      1.913669685
H      -0.728218578     -0.473822451      1.995487610
H      -0.883103830      0.257752406     -0.873627958
           6
  t=        11.50000    5    2
C      -0.004966536     -0.012286715     -0.204096339
N      -0.016325618      0.044429650      1.539591706
H       0.940691837     -0.392959818     -0.730881337
H       0.925108209      0.165618388      1.933089931
H      -0.702408955     -0.523522982      1.982505068
H      -0.877414769      0.279863504     -0.874180871
           6
  t=        12.00000    5    2
C      -0.006528702     -0.011255572     -0.212616939
N      -0.016204111      0.048793524      1.548634429
H       0.950656351     -0.446831272     -0.760848166
H       0.898385238      0.179125993      1.950849673
H      -0.675545975     -0.577908476      1.968540256
H      -0.870606811      0.301701119     -0.872198231
           6
  t=        12.50000    5    2
C      -0.007445374     -0.010125465     -0.220364779
N      -0.016453608      0.053613250      1.557131163
H       0.955516390     -0.502511239     -0.789584114
H       0.871903726      0.191643624      1.966617888
H      -0.646190107     -0.636847338      1.952510037
H      -0.863959630      0.323378490     -0.869004492
           6
  t=        13.00000    5    2
C      -0.007664252     -0.008866285     -0.227865003
N      -0.017233310      0.058525507      1.564904722
H       0.952962053     -0.558961450     -0.813936299
H       0.848010302      0.205106566      1.983062773
H      -0.613750616     -0.698574749      1.935594440
H      -0.856511460      0.344846818     -0.862886090
           6
  t=        13.50000    5    2
C      -0.007154717     -0.007519337     -0.235209644
N      -0.018697986      0.063256125      1.571746435
H       0.942165881     -0.614867797     -0.832363343
H       0.828721340      0.220340693      2.001910975
H      -0.577640839     -0.760872225      1.918058642
H      -0.848252040      0.366048886     -0.853381041
           6
  t=        14.00000    5    2
C      -0.005865021     -0.006135298     -0.242377153
N      -0.020979879      0.067589940      1.577558304
H       0.922882911     -0.669297710     -0.844261285
H       0.815298802      0.237740803      2.024055101
H      -0.537152211     -0.821579417      1.899755305
H      -0.839685609      0.387089939     -0.840733542
           6
  t=        14.50000    5    2
C      -0.003765028     -0.004766952     -0.249330796
N      -0.024093560      0.071332016      1.582287453
H       0.895191529     -0.721423188     -0.849256411
H       0.807763388      0.257480722      2.049804823
H      -0.491926482     -0.878553840      1.880661511
H      -0.831425930      0.408162676     -0.825306776
           6
  t=        15.00000    5    2
C      -0.000863951     -0.003472805     -0.256034440
N      -0.027912908      0.074317140      1.585913952
H       0.859518718     -0.770412258     -0.847072713
H       0.804851823      0.279458311      2.078866267
H      -0.442137860     -0.929782131      1.860982229
H      -0.824105136      0.429516001     -0.807441170
           6
  t=        15.50000    5    2
C       0.002758406     -0.002336346     -0.262447527
N      -0.032178962      0.076421760      1.588435138
H       0.816848104     -0.815232243     -0.837517308
H       0.804404087      0.303231179      2.110400834
H      -0.388701644     -0.973422985      1.841151304
H      -0.818279423      0.451429153     -0.787370748
           6
  t=        16.00000    5    2
C       0.006924070     -0.001520400     -0.268464380
N      -0.036561322      0.077609012      1.589880685
H       0.768944249     -0.854338200     -0.820776583
H       0.804159370      0.327894330      2.142840472
H      -0.333355107     -1.007957595      1.821520168
H      -0.814186892      0.474194245     -0.765363101
           6
  t=        16.50000    4    1
C       0.011426638     -0.001223102     -0.273910840
N      -0.040820947      0.077959588      1.590355706
H       0.717565782     -0.886213782     -0.797608983
H       0.802564336      0.352330725      2.174039714
H      -0.277615934     -1.032763502      1.801957427
H      -0.811378849      0.498027568     -0.741917054
           6
  t=        17.00000    4    1
C       0.017841258     -0.001322367     -0.279746725
N      -0.046058347      0.077651704      1.590132730
H       0.647446896     -0.918608960     -0.763394768
H       0.797820825      0.381948133      2.208736052
H      -0.207305148     -1.054191254      1.776128641
H      -0.810434366      0.527691771     -0.712413602
           6
  t=        17.50000    4    1
C       0.024729615     -0.001560445     -0.285218302
N      -0.050903567      0.076300943      1.589327527
H       0.572057331     -0.946250402     -0.723706281
H       0.787162397      0.411765944      2.240337732
H      -0.135858197     -1.064935091      1.750949726
H      -0.810530235      0.557860830     -0.682187732
           6
  t=        18.00000    4    1
C       0.031927574     -0.001830891     -0.290190577
N      -0.055222885      0.073970937      1.587994993
H       0.492326927     -0.969999385     -0.679769796
H       0.769545671      0.441106052      2.267804702
H      -0.063855750     -1.065152275      1.726646279
H      -0.810875923      0.588079885     -0.651568792
           6
  t=        18.50000    4    1
C       0.039233952     -0.001996995     -0.294523720
N      -0.058901836      0.070741385      1.586172841
H       0.409398165     -0.991070370     -0.632968655
H       0.744387167      0.469397542      2.290379756
H       0.008005176     -1.055256429      1.703487014
H      -0.810528382      0.617812727     -0.620873883
           6
  t=        19.00000    4    1
C       0.046440495     -0.001900530     -0.298084582
N      -0.061844496      0.066708417      1.583885630
H       0.324408538     -1.010960520     -0.584696183
H       0.711457091      0.496194355      2.307568766
H       0.078993797     -1.035970781      1.681776952
H      -0.808517629      0.646506192     -0.590447185
           6
  t=        19.50000    4    1
C       0.053362093     -0.001395285     -0.300759797
N      -0.063976043      0.061987136      1.581146381
H       0.238261760     -1.031108500     -0.536173250
H       0.670809405      0.521183545      2.319125225
H       0.148434841     -1.008384871      1.661842092
H      -0.803961657      0.673661239     -0.560678093
           6
  t=        20.00000    4    1
C       0.059854050     -0.000396669     -0.302466034
N      -0.065248389      0.056713338      1.577956518
H       0.151520711     -1.052360650     -0.488313136
H       0.622743449      0.544197978      2.325051832
H       0.215808974     -0.973995653      1.644010940
H      -0.796148604      0.698894292     -0.531996478
           6
  t=        20.50000    1    1
C       0.065807466      0.001078177     -0.303150821
N      -0.065647594      0.051041211      1.574304731
H       0.064520743     -1.074530789     -0.441719277
H       0.567785693      0.565239927      2.325621090
H       0.280857515     -0.934701933      1.628596120
H      -0.784578668      0.721977461     -0.504851703
           6
  t=        21.00000    1    1
C       0.071154297      0.002953791     -0.303102215
N      -0.065211395      0.045127837      1.570353409
H      -0.022249596     -1.096559361     -0.396118301
H       0.506685607      0.584628316      2.321348259
H       0.343395032     -0.892971000      1.615908747
H      -0.768969870      0.742715486     -0.479169953
           6
  t=        21.50000    1    1
C       0.075773807      0.004982203     -0.301968434
N      -0.063997953      0.039131900      1.565862584
H      -0.108279629     -1.116298944     -0.352627704
H       0.440369859      0.602692298      2.313231388
H       0.404172716     -0.850814544      1.606166962
H      -0.749265101      0.761391231     -0.455904301
           6
  t=        22.00000    1    1
C       0.079561039      0.006938588     -0.299719780
N      -0.062107971      0.033170364      1.560759942
H      -0.192623205     -1.131677558     -0.311725645
H       0.369903184      0.620129252      2.302552703
H       0.463941735     -0.810257436      1.599597881
H      -0.725577498      0.778311997     -0.435434809
           6
  t=        22.50000    1    1
C       0.082405850      0.008609333     -0.296326894
N      -0.059650555      0.027301276      1.554952064
H      -0.274101526     -1.140920205     -0.273948245
H       0.296367379      0.637839045      2.290868412
H       0.523510612     -0.772702630      1.596440734
H      -0.698148746      0.793942846     -0.418072362
           6
  t=        23.00000    1    1
C       0.084197953      0.009807874     -0.291767828
N      -0.056712492      0.021517886      1.548337042
H      -0.351416297     -1.142723138     -0.239842982
H       0.220715515      0.656756792      2.279811394
H       0.583453441     -0.738680223      1.596989832
H      -0.667285294      0.808890150     -0.404042064
           6
  t=        23.50000    1    1
C       0.084825667      0.010375083     -0.286037478
N      -0.053335167      0.015770058      1.540827970
H      -0.423214692     -1.136237711     -0.209922720
H       0.143660830      0.677567310      2.270784713
H       0.643890169     -0.707852062      1.601626094
H      -0.633268386      0.823873615     -0.393468304
           6
  t=        24.00000    1    1
C       0.084172711      0.010176424     -0.279153340
N      -0.049509680      0.010004288      1.532381461
H      -0.488120200     -1.120989377     -0.184630765
H       0.065667117      0.700393240      2.264617642
H       0.704417189     -0.679257226      1.610794949
H      -0.596273816      0.839680450     -0.386371318
           6
  t=        24.50000    1    1
C       0.082147418      0.009116405     -0.271130872
N      -0.045171677      0.004195765      1.523025679
H      -0.544944909     -1.096927142     -0.164296902
H      -0.013031684      0.724596692      2.261132160
H       0.764014257     -0.651621981      1.624777671
H      -0.556505924      0.857105544     -0.382731836
           6
  t=        25.00000    1    1
C       0.078763374      0.007172778     -0.261918180
N      -0.040187282     -0.001637936      1.512877592
H      -0.593226279     -1.064644074     -0.149077417
H      -0.092399993      0.748712219      2.258671392
H       0.820830965     -0.623608229      1.643232241
H      -0.514634259      0.876890027     -0.382637765
           6
  t=        25.50000    1    1
C       0.074107268      0.004384880     -0.251421213
N      -0.034421724     -0.007429844      1.502104878
H      -0.633109221     -1.025162333     -0.139015649
H      -0.172164322      0.770759827      2.254782000
H       0.872697303     -0.594143102      1.665336165
H      -0.471522176      0.899564262     -0.386219560
           6
  t=        26.00000    1    1
C       0.068258110      0.000837187     -0.239569106
N      -0.027803625     -0.013080742      1.490874390
H      -0.664928257     -0.979653150     -0.134146492
H      -0.251560529      0.788797892      2.247233794
H       0.917768738     -0.562589286      1.690201131
H      -0.427687256      0.925219436     -0.393485932
           6
  t=        26.50000    1    1
C       0.061277136     -0.003329508     -0.226332364
N      -0.020324355     -0.018483720      1.479331986
H      -0.689191047     -0.929447395     -0.134525842
H      -0.329477191      0.801245134      2.234359991
H       0.954684425     -0.528698006      1.716995005
H      -0.383221457      0.953357055     -0.404259846
           6
  t=        27.00000    4    1
C       0.053229881     -0.007908063     -0.211725248
N      -0.012020529     -0.023538783      1.467600303
H      -0.706723972     -0.876131762     -0.140221392
H      -0.404659902      0.806961784      2.215064718
H       0.982547096     -0.492504065      1.744959771
H      -0.337927089      0.982882625     -0.418153876
           6
  t=        27.50000    4    1
C       0.044267527     -0.012720500     -0.196057380
N      -0.002976456     -0.028131823      1.455998748
H      -0.719392360     -0.821058950     -0.151348854
H      -0.476172419      0.804704356      2.188939760
H       1.001232843     -0.453729405      1.773169525
H      -0.291379848      1.012409656     -0.434469543
           6
  t=        28.00000    4    1
C       0.034502786     -0.017350103     -0.179167135
N       0.006734683     -0.032217150      1.444395186
H      -0.728644086     -0.767143683     -0.167895532
H      -0.542544032      0.794574859      2.155545150
H       1.010276875     -0.413223063      1.801280918
H      -0.243463031      1.040003308     -0.452524727
           6
  t=        28.50000    4    1
C       0.024179518     -0.021452302     -0.161172269
N       0.017001992     -0.035735052      1.432859921
H      -0.737202358     -0.717003182     -0.189902655
H      -0.602764010      0.776398540      2.114941468
H       1.009940669     -0.371394104      1.828787972
H      -0.194088409      1.063932214     -0.471407516
           6
  t=        29.00000    4    1
C       0.013608620     -0.024704766     -0.142201177
N       0.027690942     -0.038637219      1.421446282
H      -0.748299468     -0.673197900     -0.217447352
H      -0.655996094      0.750162284      2.067431180
H       1.000866630     -0.328682475      1.855279584
H      -0.143334937      1.082700728     -0.490144362
           6
  t=        29.50000    4    1
C       0.003112232     -0.026870074     -0.122384328
N       0.038638622     -0.040885391      1.410187218
H      -0.765006248     -0.637592428     -0.250627080
H      -0.701605202      0.715957479      2.013536947
H       0.984112679     -0.285525478      1.880464461
H      -0.091396926      1.095160805     -0.507773519
           6
  t=        30.00000    4    1
C      -0.007064433     -0.027858819     -0.101863090
N       0.049651078     -0.042451844      1.399090783
H      -0.789233487     -0.610629403     -0.289364179
H      -0.739202417      0.673930452      1.954008528
H       0.961188001     -0.242304958      1.904212233
H      -0.038486540      1.100540867     -0.523420656
           6
  t=        30.50000    4    1
C      -0.016826598     -0.027752117     -0.080813476
N       0.060508729     -0.043324547      1.388133700
H      -0.820992174     -0.590989573     -0.333025171
H      -0.768741924      0.624225303      1.889855137
H       0.934061132     -0.199239639      1.926596942
H       0.015315337      1.098394917     -0.536383360
           6
  t=        31.00000    4    1
C      -0.026251574     -0.026749394     -0.059457217
N       0.070990697     -0.043523244      1.377244186
H      -0.858429295     -0.575983339     -0.380127269
H      -0.790709902      0.566964812      1.822416888
H       0.905084437     -0.156215421      1.947963638
H       0.070278934      1.088445376     -0.546192091
           6
  t=        31.50000    1    1
C      -0.035535491     -0.024965502     -0.038007620
N       0.080971002     -0.043182608      1.366350595
H      -0.899017541     -0.562722956     -0.428473324
H      -0.806696548      0.502274170      1.753203725
H       0.876423996     -0.112444766      1.968453004
H       0.127386802      1.070130484     -0.553159324
           6
  t=        32.00000    1    1
C      -0.044965485     -0.022794964     -0.016031151
N       0.090791808     -0.042670619      1.355065763
H      -0.941026103     -0.548726340     -0.477190942
H      -0.820809746      0.432483107      1.682593526
H       0.848571735     -0.066639576      1.989096380
H       0.187188815      1.047160632     -0.559349302
           6
  t=        32.50000    1    1
C      -0.054504767     -0.019897115      0.006027398
N       0.099863012     -0.041995301      1.343289597
H      -0.981471799     -0.532405855     -0.522850146
H      -0.832113888      0.355640960      1.613194066
H       0.824619595     -0.017928332      2.009677359
H       0.250435289      1.015082648     -0.563896578
           6
  t=        33.00000    1    1
C      -0.064187214     -0.016261301      0.027830977
N       0.108200321     -0.041297618      1.331036066
H      -1.018102975     -0.513003505     -0.563619424
H      -0.842425262      0.272857439      1.546766925
H       0.804864314      0.033815155      2.030287574
H       0.316579244      0.973734350     -0.566666772
           6
  t=        33.50000    1    1
C      -0.073963333     -0.011870203      0.048962241
N       0.115892766     -0.040686172      1.318445699
H      -1.049372236     -0.490193679     -0.598018916
H      -0.853641578      0.185102809      1.485121076
H       0.788695262      0.088531234      2.050427202
H       0.384755305      0.923182255     -0.567432207
           6
  t=        34.00000    1    1
C      -0.083731370     -0.006698551      0.068944669
N       0.123047460     -0.040226268      1.305787730
H      -1.074279613     -0.463969172     -0.624950998
H      -0.867139795      0.093001684      1.429934871
H       0.774858044      0.145895040      2.069021830
H       0.453895042      0.863725918     -0.565961411
           6
  t=        34.50000    1    1
C      -0.093360719     -0.000715296      0.087248886
N       0.129721631     -0.039945234      1.293441630
H      -1.092231385     -0.434528796     -0.643651185
H      -0.883158863     -0.003149796      1.382692713
H       0.761848022      0.205281384      2.084670134
H       0.522798018      0.795903181     -0.562071288
           6
  t=        35.00000    1    1
C      -0.102740445      0.006103712      0.103316366
N       0.135940131     -0.039843086      1.281860928
H      -1.102726605     -0.401997710     -0.653771960
H      -0.900862711     -0.103200338      1.344870983
H       0.748002986      0.265725310      2.095964918
H       0.590123283      0.720365544     -0.555829745
           6
  t=        35.50000    1    1
C      -0.111734621      0.013756330      0.116618017
N       0.141568743     -0.039937352      1.271513919
H      -1.105765070     -0.366857430     -0.655080572
H      -0.917845514     -0.206519997      1.317335108
H       0.732381778      0.326026281      2.101653824
H       0.654652352      0.638434185     -0.547289455
           6
  t=        36.00000    1    1
C      -0.120232792      0.022214120      0.126695154
N       0.146439291     -0.040269395      1.262840050
H      -1.101499365     -0.329664045     -0.647604756
H      -0.931287247     -0.311887208      1.300605611
H       0.714477473      0.384808233      2.100806331
H       0.715246235      0.551733000     -0.536657006
           6
  t=        36.50000    1    1
C      -0.128145165      0.031432666      0.133178571
N       0.150406518     -0.040896959      1.256226437
H      -1.090243950     -0.290981330     -0.631586289
H      -0.938669792     -0.417673198      1.294834919
H       0.694113396      0.440643322      2.092801443
H       0.770827050      0.461956024     -0.524204745
           6
  t=        37.00000    1    1
C      -0.135383371      0.041351618      0.135834064
N       0.153371426     -0.041884637      1.251963439
H      -1.072569589     -0.251319276     -0.607502696
H      -0.938130297     -0.522106003      1.299828805
H       0.671328965      0.492231581      2.077378876
H       0.820386630      0.370757284     -0.510246357
           6
  t=        37.50000    1    1
C      -0.141827324      0.051893488      0.134612116
N       0.155263824     -0.043297674      1.250199285
H      -1.049453798     -0.211205936     -0.576169277
H      -0.928507473     -0.623405495      1.315127498
H       0.646395259      0.538519973      2.054713163
H       0.863015512      0.279766916     -0.495151213
           6
  t=        38.00000    1    1
C      -0.147276280      0.062972680      0.129651851
N       0.156010445     -0.045201012      1.250936854
H      -1.022491751     -0.171371221     -0.538880256
H      -0.909290361     -0.719809257      1.340194278
H       0.619870561      0.578699837      2.025403611
H       0.897867410      0.190682575     -0.479384253
           6
  t=        38.50000    1    1
C      -0.151707112      0.074475318      0.121603416
N       0.155679154     -0.047591308      1.253914479
H      -0.993974219     -0.132322201     -0.497950799
H      -0.880432928     -0.810262130      1.372906073
H       0.592206878      0.612771918      1.990586685
H       0.925516745      0.104264904     -0.463749177
           6
  t=        39.00000    1    1
C      -0.154677302      0.086347567      0.110963011
N       0.154169032     -0.050571194      1.258889554
H      -0.968006815     -0.095459497     -0.456244199
H      -0.842046058     -0.892971301      1.412547688
H       0.564394326      0.640833805      1.951579272
H       0.945323125      0.022091098     -0.448521708
           6
  t=        39.50000    1    1
C      -0.155736879      0.098540368      0.098461862
N       0.151437460     -0.054215819      1.265509406
H      -0.950004247     -0.062319285     -0.417659247
H      -0.794570355     -0.966489538      1.457959701
H       0.537490107      0.663457146      1.910056523
H       0.957319069     -0.054693226     -0.434125193
           6
  t=        40.00000    1    1
C      -0.154415717      0.111011705      0.084869497
N       0.147461519     -0.058607792      1.273384866
H      -0.946080241     -0.034425479     -0.386271457
H      -0.738628774     -1.029547733      1.507949794
H       0.512661205      0.681662303      1.867931335
H       0.961795041     -0.125205577     -0.420960090
           6
  t=        40.50000    1    1
C      -0.150410637      0.123692817      0.070815992
N       0.142244394     -0.063836488      1.282138177
H      -0.960862000     -0.012804210     -0.364816433
H      -0.674965825     -1.081054853      1.561351208
H       0.491121063      0.696821838      1.827205568
H       0.959255132     -0.188822860     -0.409379433
           6
  t=        41.00000    1    1
C      -0.143812844      0.136456629      0.056663164
N       0.135827705     -0.069978706      1.291437507
H      -0.994836524      0.002426453     -0.353441985
H      -0.604432705     -1.120130957      1.617032188
H       0.474002370      0.710402895      1.789771704
H       0.950412554     -0.245193988     -0.399693619
           6
  t=        41.50000    1    1
C      -0.135179459      0.149120897      0.042544985
N       0.128310898     -0.077049429      1.301003423
H      -1.043633537      0.012019167     -0.350101857
H      -0.528022801     -1.146217012      1.673905604
H       0.462169201      0.723491772      1.757284801
H       0.936278130     -0.294338808     -0.392229484
           6
  t=        42.00000    1    1
C      -0.125046244      0.161391604      0.028167146
N       0.119758061     -0.085109674      1.310873218
H      -1.101026453      0.017774843     -0.351207657
H      -0.446541383     -1.158909760      1.730818534
H       0.456259861      0.737102669      1.729871985
H       0.916281021     -0.335127085     -0.386563490
           6
  t=        42.50000    4    1
C      -0.114062543      0.173096133      0.013497229
N       0.110306540     -0.094121419      1.320978859
H      -1.160621164      0.020946112     -0.354235006
H      -0.360917812     -1.158066522      1.786598121
H       0.456200319      0.751424179      1.707578208
H       0.890853778     -0.367615710     -0.382760849
           6
  t=        43.00000    4    1
C      -0.102955471      0.184443857     -0.001307696
N       0.100510518     -0.103523377      1.331191215
H      -1.218650171      0.023400176     -0.357445796
H      -0.273769756     -1.150647707      1.841241316
H       0.458720231      0.765667798      1.687784259
H       0.863074554     -0.396214636     -0.380013414
           6
  t=        43.50000    4    1
C      -0.092048814      0.194971513     -0.016348423
N       0.090238469     -0.113490846      1.341632514
H      -1.269810496      0.025463337     -0.360188578
H      -0.184516276     -1.130863472      1.892632281
H       0.465325839      0.778578799      1.672817058
H       0.831235930     -0.417833628     -0.379681885
           6
  t=        44.00000    4    1
C      -0.081668180      0.204602110     -0.031558530
N       0.079706845     -0.123757244      1.352322017
H      -1.311699279      0.028063811     -0.362093935
H      -0.094063648     -1.099986543      1.939994187
H       0.474631375      0.788738958      1.662432293
H       0.796096576     -0.433497244     -0.382172992
           6
  t=        44.50000    4    1
C      -0.072055093      0.213294203     -0.046850020
N       0.069114571     -0.134033513      1.363263389
H      -1.342857772      0.032030942     -0.363040495
H      -0.003206283     -1.059801209      1.982872444
H       0.485128846      0.794832846      1.656364716
H       0.758612007     -0.444457892     -0.387986990
           6
  t=        45.00000    4    1
C      -0.063398713      0.221044698     -0.062116245
N       0.058630042     -0.144032212      1.374430796
H      -1.362454568      0.038093361     -0.363023571
H       0.087438738     -1.012549120      2.021209061
H       0.495330756      0.795885031      1.654333450
H       0.719967941     -0.452184094     -0.397700565
           6
  t=        45.50000    4    1
C      -0.055854359      0.227890121     -0.077237557
N       0.048384763     -0.153492795      1.385767352
H      -1.370087354      0.046864340     -0.362084832
H       0.177490695     -0.960742975      2.055334022
H       0.503862595      0.791383604      1.656026000
H       0.681539481     -0.458319523     -0.411923800
           6
  t=        46.00000    4    1
C      -0.049553284      0.233901226     -0.092088981
N       0.038476235     -0.162210262      1.397196121
H      -1.365650685      0.058834965     -0.360286476
H       0.266801155     -0.906834741      2.085809997
H       0.509525210      0.781319578      1.661092032
H       0.644776870     -0.464585123     -0.431225899
           6
  t=        46.50000    4    1
C      -0.044597439      0.239165200     -0.106550284
N       0.028981348     -0.170062861      1.408642838
H      -1.349268036      0.074379066     -0.357714784
H       0.355316382     -0.852820264      2.113123160
H       0.511333817      0.766182851      1.669158543
H       0.610987668     -0.472578571     -0.456033470
           6
  t=        47.00000    4    1
C      -0.041043147      0.243756793     -0.120517488
N       0.019977651     -0.177026277      1.420059501
H      -1.321282335      0.093772205     -0.354497910
H       0.442813478     -0.799982467      2.137356978
H       0.508543489      0.746934562      1.679866244
H       0.581075741     -0.483481493     -0.486513646
           6
  t=        47.50000    4    1
C      -0.038880291      0.247708249     -0.133913179
N       0.011560706     -0.183164082      1.431433075
H      -1.282318281      0.117211126     -0.350826562
H       0.528651737     -0.748927012      2.158059161
H       0.500666012      0.724959753      1.692919743
H       0.555346537     -0.497770680     -0.522468671
           6
  t=        48.00000    4    1
C      -0.038014298      0.250992716     -0.146690134
N       0.003844489     -0.188599041      1.442771924
H      -1.233441214      0.144821770     -0.346976566
H       0.611726447     -0.699854288      2.174391551
H       0.487478564      0.701997333      1.708149209
H       0.533483184     -0.515085103     -0.563293219
           6
  t=        48.50000    4    1
C      -0.038248900      0.253529139     -0.158823834
N      -0.003055760     -0.193481338      1.454078740
H      -1.176460220      0.176652648     -0.343343938
H       0.690661097     -0.652846938      2.185432700
H       0.469018881      0.680042608      1.725584669
H       0.514695447     -0.534334135     -0.608029215
           6
  t=        49.00000    4    1
C      -0.039261082      0.255201043     -0.170293546
N      -0.009045758     -0.197964668      1.465323338
H      -1.114410978      0.212679942     -0.340510519
H       0.764099910     -0.607998700      2.190435818
H       0.445562289      0.661201123      1.745547992
H       0.497943387     -0.553983406     -0.655497330
           6
  t=        49.50000    4    1
C      -0.040570097      0.255870228     -0.181056718
N      -0.014069022     -0.202188821      1.476419224
H      -1.052132756      0.252903219     -0.339339259
H       0.830966738     -0.565342647      2.188962038
H       0.417596446      0.647439614      1.768783571
H       0.482145775     -0.572378356     -0.704445042
           6
  t=        50.00000    1    1
C      -0.041522269      0.255363545     -0.191029209
N      -0.018126835     -0.206252315      1.487195304
H      -0.996592910      0.297640696     -0.340986931
H       0.890753540     -0.524641486      2.180959526
H       0.385789457      0.640101559      1.796641983
H       0.466344524     -0.587987443     -0.753638932
           6
  t=        50.50000    1    1
C      -0.041861904      0.254202535     -0.200282709
N      -0.021588396     -0.210117188      1.497448815
H      -0.950316159      0.343709584     -0.344398888
H       0.945264653     -0.486431946      2.169894552
H       0.352791353      0.636515372      1.826060186
H       0.450695256     -0.601156933     -0.800866014
           6
  t=        51.00000    1    1
C      -0.040223999      0.251598239     -0.208616967
N      -0.023954313     -0.213861886      1.507406369
H      -0.927764457      0.396149273     -0.352529330
H       0.991581256     -0.452427950      2.151662404
H       0.314224432      0.641380768      1.858435051
H       0.433764879     -0.609428037     -0.845997235
           6
  t=        51.50000    1    1
C      -0.036350477      0.247414171     -0.215955648
N      -0.025106941     -0.217475938      1.517036296
H      -0.931584041      0.456292228     -0.366074575
H       1.028621679     -0.422978273      2.126170894
H       0.269618271      0.654579676      1.893326576
H       0.415044222     -0.612186760     -0.888272942
           6
  t=        52.00000    1    1
C      -0.030664642      0.241660745     -0.222319767
N      -0.024954471     -0.220879301      1.526262965
H      -0.956689925      0.524048680     -0.384407089
H       1.055436725     -0.397869673      2.093755157
H       0.218866465      0.674572427      1.930529524
H       0.394268491     -0.609253080     -0.927149507
           6
  t=        52.50000    1    1
C      -0.023929127      0.234536704     -0.227883299
N      -0.023530057     -0.223871373      1.535083368
H      -0.993778077      0.597750498     -0.405386027
H       1.072768536     -0.377069405      2.054609579
H       0.161188711      0.698189336      1.968969856
H       0.371713043     -0.600975501     -0.961774855
           6
  t=        53.00000    1    1
C      -0.016922018      0.226377328     -0.232743144
N      -0.020823071     -0.226277162      1.543486970
H      -1.033809842      0.674263629     -0.427291907
H       1.080397769     -0.360370591      2.009226249
H       0.096649657      0.722453276      2.007465717
H       0.347610741     -0.587873302     -0.991878548
           6
  t=        53.50000    1    1
C      -0.010219322      0.217543198     -0.236958848
N      -0.016872140     -0.227931829      1.551461926
H      -1.070315785      0.750448314     -0.448772523
H       1.078316987     -0.347502894      1.958329265
H       0.025826668      0.744424561      2.044761788
H       0.322317358     -0.570721056     -1.017407958
           6
  t=        54.00000    1    1
C      -0.004191428      0.208365724     -0.240547020
N      -0.011779239     -0.228699058      1.558980543
H      -1.099389437      0.823742712     -0.468891888
H       1.066923762     -0.338147998      1.902919788
H      -0.050202466      0.761496657      2.079684273
H       0.296278078     -0.550508768     -1.038543939
           6
  t=        54.50000    1    1
C       0.000936019      0.199135361     -0.243489570
N      -0.005724503     -0.228480192      1.565988845
H      -1.118923234      0.892243239     -0.487022962
H       1.047298336     -0.331951931      1.844312719
H      -0.129944289      0.771554380      2.111242972
H       0.270001237     -0.528400818     -1.055703631
           6
  t=        55.00000    1    1
C       0.005022554      0.190107021     -0.245748884
N       0.001012817     -0.227217847      1.572401063
H      -1.127867320      0.954570991     -0.502713093
H       1.021584636     -0.328530788      1.784146132
H      -0.211590608      0.773041486      2.138700234
H       0.244037360     -0.505678457     -1.069496292
           6
  t=        55.50000    1    1
C       0.007953711      0.181512433     -0.247322859
N       0.008009621     -0.224913967      1.578092360
H      -1.125544832      1.009637865     -0.515453624
H       0.993596829     -0.327365923      1.724415021
H      -0.293023297      0.765094023      2.161771352
H       0.219018898     -0.483640447     -1.080431378
           6
  t=        56.00000    1    1
C       0.009802833      0.173458513     -0.247993673
N       0.014824899     -0.221520266      1.583000066
H      -1.112917647      1.057185662     -0.525583732
H       0.967468940     -0.328411578      1.666284211
H      -0.372306363      0.746800537      2.179350806
H       0.195092013     -0.463106798     -1.089951818
           6
  t=        56.50000    1    1
C       0.010569082      0.166117822     -0.247697380
N       0.020929483     -0.217051975      1.587020437
H      -1.090282124      1.096659597     -0.532843362
H       0.948691290     -0.331673243      1.611172434
H      -0.447551579      0.718082988      2.191304326
H       0.172536890     -0.445282259     -1.098922048
           6
  t=        57.00000    1    1
C       0.010275242      0.159629435     -0.246383253
N       0.025858076     -0.211538672      1.590083340
H      -1.058047596      1.127620713     -0.536986266
H       0.942037069     -0.337259629      1.559828794
H      -0.517071963      0.679218347      2.197692324
H       0.151496446     -0.431141075     -1.108027428
           6
  t=        57.50000    1    1
C       0.008965068      0.154094616     -0.244028930
N       0.029353255     -0.205036382      1.592139435
H      -1.016690597      1.149706276     -0.537746183
H       0.949629045     -0.345179105      1.512455498
H      -0.579467351      0.630802641      2.198769201
H       0.131980013     -0.421335491     -1.117571497
           6
  t=        58.00000    1    1
C       0.006708032      0.149575523     -0.240653972
N       0.031431722     -0.197635353      1.593121732
H      -0.966756214      1.162610369     -0.534799268
H       0.970046403     -0.355152779      1.469177875
H      -0.633705796      0.573682838      2.195007979
H       0.113862274     -0.416171612     -1.127312780
           6
  t=        58.50000    1    1
C       0.003611063      0.146096049     -0.236333745
N       0.032313874     -0.189450464      1.592919298
H      -0.908888369      1.166096132     -0.527713534
H       0.999293367     -0.366631986      1.430374738
H      -0.679208527      0.508862917      2.187161070
H       0.096868726     -0.415653544     -1.136375756
           6
  t=        59.00000    1    1
C      -0.000222632      0.143648995     -0.231184091
N       0.032318729     -0.180627937      1.591409791
H      -0.843756898      1.160094542     -0.516070424
H       1.032552496     -0.378909573      1.396657843
H      -0.715930929      0.437580624      2.176118485
H       0.080780590     -0.419539791     -1.143601594
           6
  t=        59.50000    1    1
C      -0.004827384      0.142220066     -0.225240254
N       0.031841278     -0.171407200      1.588500537
H      -0.771936083      1.144865949     -0.499968142
H       1.065241731     -0.391091531      1.368948175
H      -0.744249162      0.361774837      2.162348120
H       0.066051017     -0.427426686     -1.148573682
           6
  t=        60.00000    1    1
C      -0.010216316      0.141756025     -0.218505868
N       0.031244036     -0.162024713      1.584068920
H      -0.694410322      1.121109223     -0.479674845
H       1.093799313     -0.402474351      1.348138844
H      -0.765018375      0.283526843      2.146508530
H       0.053200655     -0.438878515     -1.150828577
           6
  t=        60.50000    1    1
C      -0.016307725      0.142118883     -0.210993184
N       0.030834494     -0.152667121      1.577972665
H      -0.612844494      1.090363604     -0.455561929
H       1.115767725     -0.412670089      1.334880725
H      -0.779675420      0.204667820      2.129677630
H       0.042543504     -0.453417384     -1.149600981
           6
  t=        61.00000    1    1
C      -0.022925084      0.143036523     -0.202699802
N       0.030881788     -0.143468071      1.570072102
H      -0.529757508      1.055656788     -0.428327735
H       1.129535910     -0.421551534      1.329607045
H      -0.790101805      0.126618618      2.113186135
H       0.034249733     -0.470522006     -1.144044475
           6
  t=        61.50000    4    1
C      -0.029796448      0.144037906     -0.193588540
N       0.031610762     -0.134501888      1.560254392
H      -0.448596724      1.022326671     -0.399212374
H       1.134121032     -0.429187018      1.332559710
H      -0.798276114      0.050200735      2.098370290
H       0.028366053     -0.489642193     -1.133371970
           6
  t=        62.00000    4    1
C      -0.036466448      0.144424356     -0.183946569
N       0.033127141     -0.125786085      1.548766738
H      -0.373037503      0.999019442     -0.370014918
H       1.129395932     -0.435257234      1.343578061
H      -0.806012869     -0.025301921      2.086422652
H       0.023618513     -0.510464984     -1.116831728
           6
  t=        62.50000    4    1
C      -0.042787140      0.143363210     -0.173278275
N       0.035530729     -0.117302361      1.535299816
H      -0.306653457      0.994731300     -0.342891516
H       1.114967721     -0.440615355      1.362722810
H      -0.813673172     -0.099206980      2.077554077
H       0.021186446     -0.532155692     -1.094142503
           6
  t=        63.00000    4    1
C      -0.048689393      0.140278091     -0.161524835
N       0.038751013     -0.109024225      1.519947902
H      -0.250152622      1.016176029     -0.319247210
H       1.091329047     -0.445639408      1.389612144
H      -0.820776958     -0.171854494      2.071407359
H       0.020961813     -0.554215282     -1.065170515
           6
  t=        63.50000    4    1
C      -0.054336011      0.135236355     -0.148732967
N       0.042604746     -0.100946351      1.502881231
H      -0.201459170      1.062613004     -0.299109467
H       1.059614227     -0.450797614      1.423624441
H      -0.825977160     -0.243276220      2.067000954
H       0.022871948     -0.576279117     -1.030094212
           6
  t=        64.00000    4    1
C      -0.059961427      0.128913049     -0.135013700
N       0.046821445     -0.093092477      1.484320019
H      -0.157651448      1.126300082     -0.281545328
H       1.021750185     -0.456725539      1.463916125
H      -0.827582116     -0.312984588      2.063010898
H       0.026926177     -0.598164945     -0.989416741
           6
  t=        64.50000    4    1
C      -0.065718989      0.122179823     -0.120462055
N       0.051074357     -0.085502450      1.464503640
H      -0.116788909      1.197327774     -0.265579843
H       0.980528167     -0.464330416      1.509497966
H      -0.824077906     -0.379983289      2.058058027
H       0.033244661     -0.619877250     -0.943939199
           6
  t=        65.00000    4    1
C      -0.071655714      0.115774936     -0.105125681
N       0.055021107     -0.078212948      1.443666433
H      -0.078221441      1.267443285     -0.250634911
H       0.939382227     -0.474831512      1.559371663
H      -0.814479316     -0.442917271      2.050910214
H       0.042074960     -0.641579753     -0.894697919
           6
  t=        65.50000    4    1
C      -0.077751156      0.110205878     -0.089024577
N       0.058368225     -0.071251884      1.422028590
H      -0.042125992      1.331082416     -0.236477480
H       0.901662159     -0.489575124      1.612621567
H      -0.798492857     -0.500265031      2.040595468
H       0.053784849     -0.663538240     -0.842859602
           6
  t=        66.00000    4    1
C      -0.083952513      0.105772318     -0.072184114
N       0.060952495     -0.064654992      1.399807504
H      -0.009044510      1.384916183     -0.223033993
H       0.869533611     -0.509536923      1.668276838
H      -0.776533468     -0.550534920      2.026460569
H       0.068804637     -0.686011281     -0.789592183
           6
  t=        66.50000    4    1
C      -0.090185381      0.102599811     -0.054642969
N       0.062784993     -0.058484782      1.377239447
H       0.020393354      1.427184339     -0.210286316
H       0.843207271     -0.534777845      1.724915287
H      -0.749585853     -0.592453612      2.008183240
H       0.087498210     -0.709077477     -0.735991689
           6
  t=        67.00000    4    1
C      -0.096343883      0.100671091     -0.036431405
N       0.064011238     -0.052823082      1.354588235
H       0.045590125      1.457178503     -0.198310024
H       0.821170968     -0.564353630      1.780394232
H      -0.718942628     -0.625133378      1.985741318
H       0.109985232     -0.732517856     -0.683122889
           6
  t=        67.50000    4    1
C      -0.102283129      0.099884172     -0.017536823
N       0.064843958     -0.047717097      1.332087410
H       0.066059357      1.474679361     -0.187395471
H       0.801010032     -0.596730454      1.832381003
H      -0.686016874     -0.648530567      1.959492334
H       0.135899043     -0.755820412     -0.632115205
           6
  t=        68.00000    1    1
C      -0.107786845      0.099962959      0.002059236
N       0.065301911     -0.043081426      1.310021431
H       0.081725241      1.480587407     -0.178005987
H       0.781114466     -0.630982678      1.878319695
H      -0.651020040     -0.663081911      1.929374975
H       0.164301100     -0.778273710     -0.584060282
           6
  t=        68.50000    1    1
C      -0.112960578      0.100996823      0.021774920
N       0.065534667     -0.039227296      1.288855805
H       0.094447745      1.474528159     -0.169594673
H       0.761789822     -0.662404589      1.918286565
H      -0.615155081     -0.670238337      1.894354543
H       0.193407429     -0.799497890     -0.538086452
           6
  t=        69.00000    1    1
C      -0.117300191      0.102708741      0.041427192
N       0.065589112     -0.035735245      1.268980797
H       0.102287552      1.456652482     -0.163035254
H       0.740916836     -0.692504984      1.950017655
H      -0.578952842     -0.672073409      1.855856661
H       0.221153287     -0.818591132     -0.495724777
           6
  t=        69.50000    1    1
C      -0.120722140      0.105026988      0.060423455
N       0.065609965     -0.032523970      1.250893169
H       0.105390879      1.427156955     -0.158469163
H       0.718121727     -0.720030738      1.973315227
H      -0.543578453     -0.671007046      1.814623552
H       0.245925882     -0.834858848     -0.457224519
           6
  t=        70.00000    1    1
C      -0.123207966      0.107888353      0.078068533
N       0.065783763     -0.029489708      1.235132706
H       0.103877699      1.386476777     -0.156016167
H       0.693276994     -0.744064046      1.988153255
H      -0.510615184     -0.669706893      1.771882015
H       0.266504387     -0.847675480     -0.422889300
           6
  t=        70.50000    1    1
C      -0.124789551      0.111236782      0.093612840
N       0.066330716     -0.026503326      1.222256883
H       0.097879314      1.335349983     -0.155813510
H       0.666439125     -0.763900734      1.994648543
H      -0.481992400     -0.671196527      1.729201525
H       0.281950335     -0.856586464     -0.393088751
           6
  t=        71.00000    1    1
C      -0.125542319      0.115006799      0.106315295
N       0.067483228     -0.023422939      1.212813156
H       0.087622128      1.274990541     -0.158066029
H       0.637807183     -0.778922199      1.993072082
H      -0.459733832     -0.678743122      1.688138992
H       0.291530952     -0.861348980     -0.368228516
           6
  t=        71.50000    1    1
C      -0.125579347      0.119075740      0.115533944
N       0.069445525     -0.020119074      1.207301088
H       0.073539659      1.207451507     -0.163120248
H       0.607695350     -0.788541275      1.983869328
H      -0.445508409     -0.695386355      1.649707324
H       0.294676249     -0.861901964     -0.348717920
           6
  t=        72.00000    1    1
C      -0.125047816      0.123185726      0.120843391
N       0.072341238     -0.016505995      1.206114115
H       0.056420773      1.136207566     -0.171612677
H       0.576526314     -0.792265750      1.967691438
H      -0.440105429     -0.723157775      1.613897182
H       0.290998657     -0.858301499     -0.334963708
           6
  t=        72.50000    1    1
C      -0.124126982      0.126936094      0.122144648
N       0.076174094     -0.012588730      1.209455625
H       0.037432809      1.066537584     -0.184754287
H       0.544851008     -0.789841679      1.945486127
H      -0.443098890     -0.762379653      1.579622116
H       0.280436514     -0.850917638     -0.327263449
           6
  t=        73.00000    1    1
C      -0.122985268      0.129720164      0.119730462
N       0.080810091     -0.008446210      1.217261943
H       0.018044946      1.005935663     -0.204607462
H       0.513430634     -0.781451465      1.918585153
H      -0.452946287     -0.811523871      1.545114980
H       0.263084155     -0.840269864     -0.325720361
           6
  t=        73.50000    1    1
C      -0.121742801      0.130801329      0.114247238
N       0.086001503     -0.004177801      1.229182063
H      -0.000278677      0.963107659     -0.234030107
H       0.483303376     -0.767907550      1.888774368
H      -0.467466149     -0.867714377      1.508616001
H       0.239130147     -0.826976377     -0.330322251
           6
  t=        74.00000    1    1
C      -0.120437650      0.129615889      0.106490408
N       0.091440206      0.000148780      1.244617560
H      -0.016699807      0.944666438     -0.275554681
H       0.455721836     -0.750871852      1.858361107
H      -0.484309626     -0.927531886      1.468991483
H       0.208869206     -0.811754634     -0.340866634
           6
  t=        74.50000    1    1
C      -0.119039872      0.126167574      0.097236739
N       0.096785979      0.004540711      1.262816601
H      -0.031420700      0.951241228     -0.329849432
H       0.431971000     -0.733247910      1.830140739
H      -0.500982606     -0.987235200      1.425748689
H       0.173095138     -0.796215662     -0.357790505
           6
  t=        75.00000    1    1
C      -0.117385903      0.120924783      0.086953177
N       0.101697541      0.009169651      1.282926662
H      -0.045538446      0.977501739     -0.394129936
H       0.413845461     -0.719256165      1.807353905
H      -0.515861271     -1.044005607      1.379346396
H       0.132280969     -0.781589709     -0.381292284
           6
  t=        75.50000    1    1
C      -0.115345451      0.114692933      0.075970945
N       0.105884424      0.014217395      1.304027056
H      -0.060233374      1.015324774     -0.463691710
H       0.403429714     -0.713466096      1.793072638
H      -0.528385691     -1.095594600      1.330732246
H       0.087447102     -0.769548456     -0.411247583
           6
  t=        76.00000    1    1
C      -0.112858260      0.108303955      0.064528040
N       0.109148547      0.019791994      1.325314695
H      -0.076229844      1.057007696     -0.533733957
H       0.402191864     -0.719472624      1.789435937
H      -0.538375634     -1.140369378      1.280950708
H       0.039704313     -0.761834123     -0.447316083
           6
  t=        76.50000    1    1
C      -0.109909901      0.102342606      0.052822442
N       0.111411543      0.025870947      1.346239300
H      -0.093713439      1.097015424     -0.600528259
H       0.410210547     -0.738540591      1.796527221
H      -0.545635828     -1.177169507      1.231054960
H      -0.010118674     -0.759457183     -0.489074342
           6
  t=        77.00000    1    1
C      -0.106509259      0.097110372      0.041008288
N       0.112718141      0.032251838      1.366493279
H      -0.112556772      1.131942770     -0.661504578
H       0.426124599     -0.768904376      1.812307120
H      -0.550020596     -1.205239410      1.182071336
H      -0.061449446     -0.762310938     -0.535640842
           6
  t=        77.50000    1    1
C      -0.102682970      0.092689598      0.029182766
N       0.113196897      0.038612044      1.385926376
H      -0.132499339      1.159865021     -0.714986187
H       0.447640568     -0.806697855      1.833614151
H      -0.551442831     -1.224170994      1.134944476
H      -0.113811201     -0.769242737     -0.585544975
           6
  t=        78.00000    1    1
C      -0.098478692      0.089024807      0.017390724
N       0.113006429      0.044619407      1.404454579
H      -0.153239686      1.179781972     -0.759905734
H       0.472239468     -0.847572238      1.857290244
H      -0.549868276     -1.233832030      1.090485383
H      -0.166657131     -0.778457732     -0.636873733
           6
  t=        78.50000    1    1
C      -0.093967716      0.085997878      0.005643099
N       0.112297979      0.050003900      1.422008498
H      -0.174467657      1.191245855     -0.795592141
H       0.497678092     -0.887787189      1.880797760
H      -0.545314549     -1.234279488      1.049334405
H      -0.219289101     -0.788033206     -0.687566986
           6
  t=        79.00000    1    1
C      -0.089242457      0.083481285     -0.006063873
N       0.111200488      0.054573928      1.438519149
H      -0.195865605      1.194134570     -0.821632644
H       0.522188484     -0.924538277      1.902344827
H      -0.537851534     -1.225676334      1.011949590
H      -0.270878113     -0.796307999     -0.735700385
           6
  t=        79.50000    1    1
C      -0.084409717      0.081365632     -0.017736613
N       0.109819688      0.058202432      1.453921183
H      -0.217101533      1.188521146     -0.837789489
H       0.544478274     -0.955846401      1.920774095
H      -0.527601515     -1.208230819      0.978620473
H      -0.320538907     -0.802058037     -0.779659409
           6
  t=        80.00000    1    1
C      -0.079582021      0.079567545     -0.029380440
N       0.108242406      0.060806644      1.468160052
H      -0.237828881      1.174604679     -0.843953469
H       0.563649654     -0.980328505      1.935404201
H      -0.514737443     -1.182162672      0.949493355
H      -0.367413871     -0.804503019     -0.818196974
           6
  t=        80.50000    1    1
C      -0.074867891      0.078024598     -0.041001747
N       0.106541084      0.062333786      1.481198769
H      -0.257704448      1.152695417     -0.840121434
H       0.579102244     -0.997005816      1.945889810
H      -0.499482089     -1.147697611      0.924599664
H      -0.410737458     -0.803229625     -0.850412300
           6
  t=        81.00000    1    1
C      -0.070361222      0.076683435     -0.052609811
N       0.104776346      0.062755588      1.493020367
H      -0.276422893      1.123264010     -0.826399920
H       0.590445412     -1.005195744      1.952107630
H      -0.482111548     -1.105100336      0.903899721
H      -0.449872587     -0.798098318     -0.875689662
           6
  t=        81.50000    1    1
C      -0.066133506      0.075488663     -0.064213649
N       0.102998668      0.062066320      1.503625832
H      -0.293751677      1.087035335     -0.803053912
H       0.597437899     -1.004451220      1.954081493
H      -0.462964505     -1.054748804      0.887343759
H      -0.484321976     -0.789163911     -0.893644478
           6
  t=        82.00000    1    1
C      -0.062231190      0.074372039     -0.075811234
N       0.101250299      0.060280834      1.513029956
H      -0.309557740      1.045118764     -0.770609163
H       0.599968193     -0.994518939      1.951959435
H      -0.442455955     -0.997203925      0.874891739
H      -0.513726136     -0.776621975     -0.904088655
           6
  t=        82.50000    1    1
C      -0.058671551      0.073235196     -0.087375719
N       0.099567176      0.057439366      1.521259524
H      -0.323869535      0.999233881     -0.730005337
H       0.598060879     -0.975358054      1.946010934
H      -0.421104779     -0.933298965      0.866505819
H      -0.537855938     -0.760787468     -0.907006009
           6
  t=        83.00000    1    1
C      -0.055432006      0.071924144     -0.098837089
N       0.097980563      0.053620011      1.528352954
H      -0.337010736      0.952053662     -0.682798353
H       0.591902128     -0.947222683      1.936639814
H      -0.399579837     -0.864267231      0.862118025
H      -0.556608306     -0.742097505     -0.902543881
           6
  t=        83.50000    1    1
C      -0.052432378      0.070199665     -0.110064995
N       0.096518067      0.048957930      1.534362375
H      -0.349812256      0.907602584     -0.631340914
H       0.581901169     -0.910813572      1.924426885
H      -0.378768643     -0.791878042      0.861547991
H      -0.570012275     -0.721136139     -0.891026380
           6
  t=        84.00000    1    1
C      -0.049515353      0.067724109     -0.120869284
N       0.095202466      0.043671893      1.539358558
H      -0.363835103      0.871453015     -0.578736985
H       0.568810899     -0.867524683      1.910205509
H      -0.359872369     -0.718550719      0.864353472
H      -0.578248144     -0.698681801     -0.872988089
           6
  t=        84.50000    1    1
C      -0.046446645      0.064114674     -0.131044197
N       0.094046755      0.038095351      1.543436428
H      -0.381340338      0.850110905     -0.528238609
H       0.553915397     -0.819792024      1.895180301
H      -0.344508168     -0.647400253      0.869615109
H      -0.581691966     -0.675764548     -0.849231091
           6
  t=        85.00000    1    1
C      -0.042970953      0.059113961     -0.140461699
N       0.093043814      0.032699892      1.546715759
H      -0.404583382      0.848969875     -0.482001728
H       0.539265262     -0.771480686      1.881077238
H      -0.334767108     -0.582099655      0.875729763
H      -0.580988725     -0.653727502     -0.820910924
           6
  t=        85.50000    1    1
C      -0.038921602      0.052822052     -0.149143446
N       0.092151000      0.028083554      1.549327679
H      -0.434458893      0.869490468     -0.440047965
H       0.527840272     -0.728064477      1.870227908
H      -0.333120335     -0.526421582      0.880429846
H      -0.577144489     -0.634285766     -0.789634072
           6
  t=        86.00000    1    1
C      -0.034290034      0.045780034     -0.157208857
N       0.091282871      0.024879500      1.551382556
H      -0.469630539      0.908086843     -0.400696073
H       0.523294254     -0.696016756      1.865335473
H      -0.342033785     -0.483451777      0.881322997
H      -0.571598194     -0.619534396     -0.757504168
           6
  t=        86.50000    1    1
C      -0.029179126      0.038792950     -0.164738583
N       0.090342914      0.023558759      1.552940381
H      -0.507137171      0.958010392     -0.362109985
H       0.528835201     -0.680807762      1.868630687
H      -0.363282959     -0.454763768      0.876960431
H      -0.566177580     -0.611811163     -0.727012492
           6
  t=        87.00000    1    1
C      -0.023713004      0.032653925     -0.171699766
N       0.089299782      0.024210770      1.554017635
H      -0.543749063      1.012239971     -0.323365947
H       0.545495804     -0.684191709      1.880653761
H      -0.397287225     -0.440061105      0.867777904
H      -0.562812183     -0.613323501     -0.700678980
           6
  t=        87.50000    1    1
C      -0.018008086      0.027950751     -0.177976908
N       0.088233795      0.026497816      1.554617603
H      -0.576880294      1.065205394     -0.284517592
H       0.571312409     -0.703244619      1.899754384
H      -0.442924563     -0.437524018      0.856038864
H      -0.562976134     -0.625551317     -0.680484009
           6
  t=        88.00000    1    1
C      -0.012207638      0.024988512     -0.183440991
N       0.087291251      0.029840382      1.554740396
H      -0.604808083      1.113136250     -0.246200252
H       0.602377140     -0.732240686      1.922923428
H      -0.497912899     -0.444530740      0.844782134
H      -0.567093271     -0.648652388     -0.667359663
           6
  t=        88.50000    1    1
C      -0.006513676      0.023796444     -0.187991699
N       0.086601911      0.033648179      1.554374801
H      -0.626533817      1.153755135     -0.209242772
H       0.634615912     -0.765260473      1.947064778
H      -0.559421062     -0.458269660      0.836642420
H      -0.574316869     -0.681226764     -0.661054344
           6
  t=        89.00000    1    1
C      -0.001153221      0.024175134     -0.191545031
N       0.086221324      0.037440318      1.553490303
H      -0.641622159      1.185877346     -0.174367463
H       0.665034945     -0.797522556      1.969713265
H      -0.624620174     -0.475990382      0.833058482
H      -0.582986093     -0.720565561     -0.660395550
           6
  t=        89.50000    1    1
C       0.003603052      0.026023456     -0.194201816
N       0.086204248      0.040874871      1.552145829
H      -0.649685536      1.208093011     -0.142430583
H       0.691110508     -0.826228543      1.989482285
H      -0.690843804     -0.495446765      0.835301204
H      -0.591169132     -0.764348473     -0.664029467
           6
  t=        90.00000    1    1
C       0.007502372      0.029057516     -0.195903494
N       0.086559572      0.043728555      1.550309906
H      -0.650720928      1.220090103     -0.114116885
H       0.711382066     -0.849379718      2.005349614
H      -0.755850171     -0.514900873      0.843399245
H      -0.596764101     -0.809517503     -0.670537760
           6
  t=        90.50000    1    1
C       0.010345242      0.033013051     -0.196588716
N       0.087279458      0.045857407      1.547956392
H      -0.644849691      1.221809719     -0.090016764
H       0.724987165     -0.865760945      2.016706619
H      -0.817837500     -0.533022723      0.856974048
H      -0.598104648     -0.853412021     -0.678710106
           6
  t=        91.00000    1    1
C       0.011993550      0.037662755     -0.196194076
N       0.088347853      0.047172947      1.545065798
H      -0.632287113      1.213373608     -0.070641678
H       0.731461858     -0.874673762      2.023200541
H      -0.875414420     -0.548841242      0.875447257
H      -0.594035384     -0.893887450     -0.687588083
           6
  t=        91.50000    1    1
C       0.012367264      0.042813136     -0.194656716
N       0.089744090      0.047626317      1.541624391
H      -0.613344695      1.195079032     -0.056435824
H       0.730614277     -0.875772129      2.024637449
H      -0.927538457     -0.561676646      0.898165221
H      -0.583855372     -0.929284174     -0.696437561
           6
  t=        92.00000    1    1
C       0.011438904      0.048289687     -0.191916939
N       0.091442638      0.047199409      1.537621758
H      -0.588467413      1.167461825     -0.047776955
H       0.722462552     -0.868983933      2.020935101
H      -0.973444437     -0.571069593      0.924465866
H      -0.567220974     -0.958340049     -0.704702571
           6
  t=        92.50000    1    1
C       0.009230567      0.053914361     -0.187920105
N       0.093410635      0.045902819      1.533046617
H      -0.558309508      1.131438663     -0.044952769
H       0.707225540     -0.854507665      2.012112906
H      -1.012588941     -0.576717695      0.953698340
H      -0.544046734     -0.980102901     -0.711957815
           6
  t=        93.00000    1    1
C       0.005817702      0.059474380     -0.182619764
N       0.095603666      0.043781160      1.527882796
H      -0.523868566      1.088560126     -0.048107355
H       0.685366838     -0.832884193      1.998318044
H      -1.044616798     -0.578425016      0.985194806
H      -0.514435087     -0.993864714     -0.717866925
           6
  t=        93.50000    1    1
C       0.001296923      0.064687520     -0.176030850
N       0.097966902      0.040956761      1.522139850
H      -0.486403706      1.041173085     -0.056923401
H       0.657730358     -0.805343611      1.979781371
H      -1.069496031     -0.576093528      1.017975438
H      -0.478391355     -0.999179610     -0.721953183
           6
  t=        94.00000    1    1
C      -0.004050709      0.069131240     -0.167935462
N       0.100435198      0.037548507      1.515655434
H      -0.448681767      0.994117629     -0.071463734
H       0.625537685     -0.773324542      1.957255220
H      -1.087339240     -0.569781495      1.051052336
H      -0.436699054     -0.996011477     -0.724257029
           6
  t=        94.50000    1    1
C      -0.009919201      0.072248052     -0.158310713
N       0.102849087      0.033772378      1.508317129
H      -0.413780906      0.953580103     -0.091342159
H       0.590791185     -0.739612725      1.932042896
H      -1.098047828     -0.559368534      1.083949144
H      -0.389808743     -0.984244309     -0.724702128
           6
  t=        95.00000    1    1
C      -0.015947201      0.073361408     -0.147124194
N       0.104983876      0.029950554      1.499950781
H      -0.385258601      0.927353644     -0.116178310
H       0.556320028     -0.708427024      1.906194546
H      -1.101582465     -0.544713062      1.116267654
H      -0.338212018     -0.964014872     -0.723286908
           6
  t=        95.50000    1    1
C      -0.021825837      0.071854632     -0.134331562
N       0.106567951      0.026532704      1.490346029
H      -0.365985452      0.922568865     -0.145876027
H       0.525639985     -0.685535772      1.882511273
H      -1.097994979     -0.525728514      1.147584954
H      -0.282406027     -0.935677252     -0.720090883
           6
  t=        96.00000    1    1
C      -0.027429503      0.067643289     -0.119819417
N       0.107259122      0.023885817      1.479162929
H      -0.356156659      0.941762354     -0.181130246
H       0.502124284     -0.676683336      1.864420301
H      -1.086782010     -0.502209795      1.178692186
H      -0.222813178     -0.900322460     -0.715264430
           6
  t=        96.50000    1    1
C      -0.032798847      0.061194756     -0.103436508
N       0.106871136      0.022309584      1.466199418
H      -0.353871287      0.981118411     -0.222131458
H       0.488031672     -0.685898215      1.853919534
H      -1.068337802     -0.474077665      1.209478445
H      -0.160127106     -0.859914538     -0.709497412
           6
  t=        97.00000    1    1
C      -0.038065707      0.053399225     -0.085096530
N       0.105402549      0.021784421      1.451431099
H      -0.356088386      1.032653685     -0.268056439
H       0.483171826     -0.712876120      1.850672476
H      -1.043307555     -0.441268986      1.239981225
H      -0.094963373     -0.817164816     -0.704002711
           6
  t=        97.50000    1    1
C      -0.043332587      0.045221739     -0.064777638
N       0.103017610      0.021966000      1.435017003
H      -0.360220953      1.088149514     -0.317250081
H       0.485237402     -0.752970259      1.852092851
H      -1.012649807     -0.403737058      1.270438368
H      -0.027704722     -0.775254528     -0.700556732
           6
  t=        98.00000    1    1
C      -0.048637900      0.037498158     -0.042551039
N       0.099950985      0.022356994      1.417229224
H      -0.364670418      1.141143834     -0.367828208
H       0.491246394     -0.799662395      1.854777244
H      -0.977738334     -0.361542632      1.301350362
H       0.041602864     -0.737221467     -0.701073443
           6
  t=        98.50000    1    1
C      -0.053947766      0.030868383     -0.018799241
N       0.096439244      0.022565974      1.398380742
H      -0.368611626      1.186688913     -0.417396100
H       0.498595191     -0.847698053      1.855963728
H      -0.940714021     -0.315253076      1.333959106
H       0.113188366     -0.704985577     -0.706221737
           6
  t=        99.00000    1    1
C      -0.059162851      0.025592787      0.005977926
N       0.092742985      0.022295592      1.378740428
H      -0.372072586      1.222154802     -0.463902203
H       0.505271804     -0.892946899      1.853699362
H      -0.904634631     -0.265409477      1.369859691
H       0.187345943     -0.678474903     -0.715479719
           6
  t=        99.50000    1    1
C      -0.064160739      0.021667144      0.031166488
N       0.089159371      0.021293614      1.358580440
H      -0.375411339      1.246448492     -0.505975255
H       0.509984606     -0.932156958      1.846794028
H      -0.873316162     -0.212300681      1.410631426
H       0.263954784     -0.656004620     -0.727078795
           6
  t=       100.00000    1    1
C      -0.068919154      0.018976745      0.055776917
N       0.086143167      0.019303493      1.338462883
H      -0.379154608      1.259037622     -0.542479593
H       0.511797790     -0.962538544      1.834082992
H      -0.851564560     -0.155524148      1.457175740
H       0.342699480     -0.635304214     -0.737919303
