           6
  t=         0.00000    9    3
C       0.007769808      0.051933436      0.037704226
N       0.005563568     -0.017073162      1.316923594
H       0.825166483     -0.147689862     -0.598942516
H       0.796658601     -0.048520142      1.892899534
H      -0.853837500      0.090646537      1.842058140
H      -0.937803535     -0.275578552     -0.612386284
           6
  t=         0.50000    9    3
C       0.009217190      0.051048940      0.025647292
N       0.005408323     -0.017357329      1.325781682
H       0.795975322     -0.146782952     -0.603350224
H       0.790080319     -0.041275092      1.903159654
H      -0.854060988      0.082305670      1.832941729
H      -0.916887886     -0.260909051     -0.588640643
           6
  t=         1.00000    9    3
C       0.009820745      0.050098867      0.010502644
N       0.004948448     -0.017599812      1.337290149
H       0.774154888     -0.145980738     -0.608608127
H       0.786999698     -0.035097477      1.912431275
H      -0.853340569      0.073291238      1.821363278
H      -0.893504595     -0.244192216     -0.560654680
           6
  t=         1.50000    9    3
C       0.009618336      0.049171742     -0.006957892
N       0.004174791     -0.017772139      1.350850763
H       0.761716356     -0.146460214     -0.616754628
H       0.788171755     -0.029481231      1.921957508
H      -0.852626581      0.063123438      1.809208208
H      -0.869793196     -0.225726955     -0.530396465
           6
  t=         2.00000    9    3
C       0.008749728      0.048409410     -0.025702729
N       0.003397749     -0.017872554      1.365697329
H       0.759705122     -0.149783584     -0.629368076
H       0.792919348     -0.023487635      1.932911449
H      -0.854627310      0.051182494      1.798753989
H      -0.849390548     -0.205983355     -0.501375381
           6
  t=         2.50000    5    2
C       0.007687785      0.048224239     -0.043023293
N       0.002919978     -0.017966188      1.380332777
H       0.768534247     -0.159274132     -0.651407509
H       0.800511923     -0.015134731      1.945679122
H      -0.862001272      0.036786364      1.791280410
H      -0.839156185     -0.186943052     -0.481747928
           6
  t=         3.00000    5    2
C       0.006791157      0.048627724     -0.061688887
N       0.002481820     -0.018007461      1.397111951
H       0.789315245     -0.173896075     -0.686693570
H       0.812540240     -0.005655100      1.961987574
H      -0.875823387      0.019769294      1.786351388
H      -0.841380159     -0.169013578     -0.468729952
           6
  t=         3.50000    5    2
C       0.006537515      0.049309679     -0.080666730
N       0.002191875     -0.017891960      1.414407070
H       0.815956497     -0.189012966     -0.723602300
H       0.826103109      0.002369787      1.978516456
H      -0.893596285      0.002286529      1.784696738
H      -0.856763403     -0.154162685     -0.461034924
           6
  t=         4.00000    5    2
C       0.007191140      0.050222719     -0.099917288
N       0.002105439     -0.017603035      1.432105900
H       0.845094058     -0.204402411     -0.759745249
H       0.839828314      0.009219639      1.994565910
H      -0.914382678     -0.016232290      1.785868494
H      -0.885422095     -0.141989250     -0.458814812
           6
  t=         4.50000    5    2
C       0.008769752      0.051295292     -0.119475819
N       0.002211568     -0.017126482      1.450134088
H       0.873871972     -0.219822403     -0.793276446
H       0.852558789      0.014990245      2.009520264
H      -0.936649568     -0.036162187      1.789181891
H      -0.924935132     -0.131801447     -0.461162202
           6
  t=         5.00000    5    2
C       0.011101373      0.052457546     -0.139413901
N       0.002456675     -0.016454322      1.468445538
H       0.900083305     -0.235112068     -0.822884100
H       0.863434537      0.019677400      2.022903511
H      -0.958625755     -0.057718758      1.793860863
H      -0.971214539     -0.122819503     -0.466644095
           6
  t=         5.50000    5    2
C       0.013932553      0.053661375     -0.159799476
N       0.002763346     -0.015586776      1.487010470
H       0.922139145     -0.250200031     -0.847710176
H       0.871935775      0.023222992      2.034401809
H      -0.978601520     -0.080967291      1.799158144
H      -1.019767897     -0.114415506     -0.473834684
           6
  t=         6.00000    5    2
C       0.017014216      0.054884938     -0.180677866
N       0.003043207     -0.014532684      1.505805953
H       0.938971684     -0.265074181     -0.867252057
H       0.877885690      0.025551187      2.043869048
H      -0.995115395     -0.105839254      1.804435029
H      -1.066618495     -0.106211419     -0.481593515
           6
  t=         6.50000    8    2
C       0.020141700      0.056125701     -0.202069062
N       0.003204881     -0.013308941      1.524808465
H       0.949932296     -0.279748634     -0.881279199
H       0.881421581      0.026600805      2.051323987
H      -1.007034711     -0.132155474      1.809206025
H      -1.108681154     -0.098046168     -0.489119521
           6
  t=         7.00000    8    2
C       0.023146644      0.057317004     -0.224053149
N       0.003110522     -0.012086845      1.544008736
H       0.955583473     -0.293476226     -0.888895485
H       0.883879493      0.027093065      2.056204623
H      -1.014067839     -0.158594298      1.812303781
H      -1.144226096     -0.089536035     -0.494497112
           6
  t=         7.50000    8    2
C       0.025927831      0.058549099     -0.246524624
N       0.002731776     -0.010746681      1.563350490
H       0.955018247     -0.307074689     -0.891182514
H       0.884889373      0.026300853      2.059540618
H      -1.015278674     -0.185921331      1.814443656
H      -1.171313290     -0.081108513     -0.498864017
           6
  t=         8.00000    8    2
C       0.028395013      0.059841548     -0.269440946
N       0.002005403     -0.009320106      1.582791619
H       0.948489722     -0.320629922     -0.888531914
H       0.885162757      0.024300164      2.061703152
H      -1.010583238     -0.213823800      1.815614865
H      -1.189038092     -0.072859582     -0.502110453
           6
  t=         8.50000    8    2
C       0.030468286      0.061218458     -0.292734165
N       0.000889966     -0.007839531      1.602285903
H       0.936565752     -0.334300008     -0.881553049
H       0.885488642      0.021220402      2.063075301
H      -1.000274426     -0.242005418      1.815888127
H      -1.196937342     -0.064893518     -0.504247729
           6
  t=         9.00000    8    2
C       0.032066372      0.062708829     -0.316315927
N      -0.000625965     -0.006331387      1.621782588
H       0.920143620     -0.348344719     -0.871048296
H       0.886636079      0.017214668      2.064032374
H      -0.985030463     -0.270249468      1.815434229
H      -1.194872573     -0.057298440     -0.505366378
           6
  t=         9.50000    8    2
C       0.033102121      0.064347967     -0.340086549
N      -0.002516817     -0.004804248      1.641229706
H       0.900456892     -0.363164171     -0.857986122
H       0.889239819      0.012401461      2.064924910
H      -0.965902164     -0.298522613      1.814551224
H      -1.182978879     -0.050127326     -0.505611398
           6
  t=        10.00000    8    2
C       0.033484055      0.066181256     -0.363929549
N      -0.004715121     -0.003242766      1.660579597
H       0.879095787     -0.379345529     -0.843502095
H       0.893705927      0.006840707      2.066004828
H      -0.944284396     -0.327029675      1.813604931
H      -1.161705951     -0.043401733     -0.505189642
           6
  t=        10.50000    5    2
C       0.033129310      0.068267150     -0.387713976
N      -0.007112802     -0.001609470      1.679794360
H       0.857944116     -0.397674458     -0.828828166
H       0.900147483      0.000549528      2.067377244
H      -0.921827643     -0.356212438      1.812958656
H      -1.131915179     -0.037127975     -0.504370212
           6
  t=        11.00000    5    2
C       0.032087052      0.070625350     -0.411425310
N      -0.009629631      0.000131005      1.698836664
H       0.839247292     -0.418704362     -0.814752779
H       0.908285439     -0.006441076      2.069042143
H      -0.899830623     -0.386599354      1.813301181
H      -1.095974328     -0.030981148     -0.502707646
           6
  t=        11.50000    8    2
C       0.030271385      0.073409574     -0.434746441
N      -0.012037751      0.002023588      1.717658189
H       0.824636770     -0.443964905     -0.802777630
H       0.917552930     -0.013967016      2.070987637
H      -0.880219977     -0.418795472      1.814567605
H      -1.055164524     -0.025445177     -0.501727816
           6
  t=        12.00000    8    2
C       0.027955250      0.076479018     -0.457216682
N      -0.014233809      0.004111401      1.735954585
H       0.815283033     -0.472658183     -0.793306998
H       0.927409057     -0.022025391      2.072481870
H      -0.864141272     -0.452848285      1.816426815
H      -1.013655669     -0.020196019     -0.501220065
           6
  t=        12.50000    8    2
C       0.025503198      0.079886091     -0.478808996
N      -0.016178271      0.006459980      1.754028595
H       0.810328006     -0.505286960     -0.787557437
H       0.937524527     -0.030461502      2.072824528
H      -0.851681926     -0.489401127      1.818183064
H      -0.975062932     -0.015776851     -0.503100139
           6
  t=        13.00000    8    2
C       0.023425312      0.083568765     -0.499467896
N      -0.017859312      0.009012900      1.771855664
H       0.808955065     -0.540973804     -0.785063410
H       0.947256120     -0.038940947      2.071706034
H      -0.842318120     -0.527877096      1.819558385
H      -0.944688068     -0.012453888     -0.507565482
           6
  t=        13.50000    4    1
C       0.022259207      0.087435679     -0.519179091
N      -0.019309244      0.011667923      1.789371775
H       0.809824984     -0.578373859     -0.785066290
H       0.955966633     -0.047098584      2.069068766
H      -0.834900432     -0.567203480      1.820492488
H      -0.927656397     -0.010501467     -0.514537555
           6
  t=        14.00000    4    1
C       0.022267803      0.092004906     -0.540960965
N      -0.020786660      0.014795165      1.808665196
H       0.811927678     -0.621493650     -0.785778811
H       0.963467552     -0.057131194      2.067052142
H      -0.825945267     -0.612829003      1.824015925
H      -0.925790562     -0.009578572     -0.524049424
           6
  t=        14.50000    4    1
C       0.023667158      0.096606533     -0.562333115
N      -0.022235189      0.018071325      1.827081356
H       0.813493885     -0.663296005     -0.785908043
H       0.967805139     -0.069458111      2.067944190
H      -0.813608645     -0.659081758      1.831923879
H      -0.940567263     -0.009506488     -0.534127334
           6
  t=        15.00000    8    2
C       0.026336543      0.101057858     -0.583346216
N      -0.023766197      0.021411896      1.844756484
H       0.813108525     -0.702229893     -0.785453286
H       0.969047471     -0.084050330      2.071233670
H      -0.796440628     -0.704619774      1.843534764
H      -0.969104578     -0.009857637     -0.544868565
           6
  t=        15.50000    8    2
C       0.029333065      0.104315985     -0.599682220
N      -0.025067770      0.023841598      1.858373653
H       0.810246547     -0.729719291     -0.784798758
H       0.967677705     -0.095713859      2.074535712
H      -0.778786204     -0.737781977      1.854430808
H      -1.000122446     -0.010094810     -0.554413771
           6
  t=        16.00000    8    2
C       0.032944230      0.107108742     -0.615280890
N      -0.026410877      0.025701928      1.871378240
H       0.804218029     -0.752353018     -0.783831235
H       0.964095040     -0.105264952      2.077729486
H      -0.757787792     -0.764964224      1.866009300
H      -1.035846226     -0.009827929     -0.565114023
           6
  t=        16.50000    8    2
C       0.036833906      0.109358609     -0.630159077
N      -0.027809067      0.026923502      1.883766579
H       0.794881118     -0.769675930     -0.782493624
H       0.958688711     -0.112379085      2.081012210
H      -0.733619190     -0.785603723      1.878289759
H      -1.072158966     -0.008512377     -0.576991592
           6
  t=        17.00000    8    2
C       0.040719011      0.111017370     -0.644330875
N      -0.029266145      0.027464542      1.895538401
H       0.782299894     -0.781466395     -0.780793540
H       0.952036359     -0.116757125      2.084584712
H      -0.706787984     -0.799481707      1.891263121
H      -1.105771359     -0.005733088     -0.590059055
           6
  t=        17.50000    8    2
C       0.044378342      0.112067094     -0.657809836
N      -0.030775138      0.027313639      1.906695940
H       0.766721864     -0.787737648     -0.778786808
H       0.944862896     -0.118127848      2.088643926
H      -0.678109291     -0.806760536      1.904898740
H      -1.134303720     -0.001213688     -0.604296561
           6
  t=        18.00000    8    2
C       0.047642353      0.112520083     -0.670609269
N      -0.032314766      0.026493503      1.917243447
H       0.748572873     -0.788755678     -0.776566158
H       0.937979078     -0.116247374      2.093372490
H      -0.648692622     -0.808037309      1.919152177
H      -1.156160096      0.005203000     -0.619650183
           6
  t=        18.50000    8    2
C       0.050377329      0.112419337     -0.682741661
N      -0.033844101      0.025065141      1.927186840
H       0.728465977     -0.785071474     -0.774252319
H       0.932197267     -0.110897353      2.098925905
H      -0.619929616     -0.804404590      1.933975129
H      -1.170350796      0.013582565     -0.636039933
           6
  t=        19.00000    8    2
C       0.052470750      0.111839688     -0.694217939
N      -0.035297434      0.023130432      1.936533229
H       0.707216934     -0.777559772     -0.771984900
H       0.928228259     -0.101885431      2.105418471
H      -0.593459149     -0.797486453      1.949328689
H      -1.176336727      0.023924897     -0.653370277
           6
  t=        19.50000    8    2
C       0.053821186      0.110888427     -0.705047057
N      -0.036582906      0.020829004      1.945290192
H       0.685852792     -0.767446760     -0.769910999
H       0.926572597     -0.089052696      2.112910248
H      -0.571074394     -0.789388221      1.965199691
H      -1.173920909      0.036185032     -0.671539682
           6
  t=        20.00000    8    2
C       0.054335335      0.109702891     -0.715236122
N      -0.037589411      0.018323755      1.953464908
H       0.665591672     -0.756295716     -0.768170800
H       0.927429186     -0.072291772      2.121397893
H      -0.554533341     -0.782477661      1.981615736
H      -1.163195206      0.050288067     -0.690447354
           6
  t=        20.50000    8    2
C       0.053934975      0.108441541     -0.724791048
N      -0.038204514      0.015771414      1.961063721
H       0.647766629     -0.745909654     -0.766881287
H       0.930646483     -0.051574775      2.130812334
H      -0.545260998     -0.778948411      1.998648291
H      -1.144546948      0.066138344     -0.709996435
           6
  t=        21.00000    8    2
C       0.052575793      0.107265638     -0.733717422
N      -0.038340206      0.013283461      1.968093021
H       0.633673742     -0.738118354     -0.766121590
H       0.935732395     -0.026984099      2.141025044
H      -0.544003820     -0.780246436      2.016390877
H      -1.118728872      0.083624939     -0.730095061
           6
  t=        21.50000    8    2
C       0.050277169      0.106311927     -0.742020945
N      -0.037955859      0.010894770      1.974561675
H       0.624353235     -0.734459099     -0.765925172
H       0.941921113      0.001265073      2.151862422
H      -0.550581359     -0.786612499      2.034911015
H      -1.086991102      0.102628333     -0.750658978
           6
  t=        22.00000    8    2
C       0.047156556      0.105662836     -0.749706624
N      -0.037066326      0.008559041      1.980483688
H       0.620360472     -0.735835914     -0.766283175
H       0.948277446      0.032820214      2.163125495
H      -0.563881178     -0.797015810      2.054197747
H      -1.051258357      0.123036144     -0.771622099
           6
  t=        22.50000    8    2
C       0.043455923      0.105325551     -0.756776168
N      -0.035731912      0.006173727      1.985879091
H       0.621619343     -0.742300781     -0.767158288
H       0.953811201      0.067208181      2.174611201
H      -0.582113561     -0.809520097      2.074135909
H      -1.014297223      0.144776485     -0.792961496
           6
  t=        23.00000    8    2
C       0.039543833      0.105229189     -0.763223865
N      -0.034038054      0.003617835      1.990772152
H       0.627431852     -0.753071819     -0.768501720
H       0.957577853      0.103869777      2.186131776
H      -0.603193070     -0.821847503      2.094521617
H      -0.979751973      0.167873942     -0.814739501
           6
  t=        23.50000    8    2
C       0.035875992      0.105240791     -0.769032968
N      -0.032075634      0.000782964      1.995188062
H       0.636641108     -0.766775908     -0.770265153
H       0.958751864      0.142203938      2.197529844
H      -0.625081635     -0.831858558      2.115102708
H      -0.951841499      0.192506245     -0.837144311
           6
  t=        24.00000    8    2
C       0.032905292      0.105194307     -0.774176478
N      -0.029927834     -0.002410918      1.999149697
H       0.647871229     -0.781791962     -0.772403501
H       0.956670335      0.181614284      2.208688657
H      -0.646010513     -0.837821816      2.135622669
H      -0.934532506      0.219006382     -0.860487051
           6
  t=        24.50000    8    2
C       0.030958963      0.104926850     -0.778626475
N      -0.027663432     -0.006012746      2.002675406
H       0.659752873     -0.796553984     -0.774871151
H       0.950850462      0.221553201      2.219537501
H      -0.664586464     -0.838498711      2.155854088
H      -0.930306743      0.247736787     -0.885102633
           6
  t=        25.00000    8    2
C       0.030141437      0.104315487     -0.782370707
N      -0.025333741     -0.010044670      2.005777898
H       0.671079275     -0.809740625     -0.777616839
H       0.940987259      0.261562052      2.230052553
H      -0.679827976     -0.833125040      2.175619420
H      -0.939164440      0.278842038     -0.911163377
           6
  t=        25.50000    8    2
C       0.030326552      0.103301848     -0.785426353
N      -0.022970263     -0.014508508      2.008463777
H       0.680884026     -0.820353302     -0.780580292
H       0.926937128      0.301308234      2.240253120
H      -0.691177708     -0.821358468      2.194803219
H      -0.958613083      0.312034090     -0.938520642
           6
  t=        26.00000    8    2
C       0.031238909      0.101893864     -0.787840710
N      -0.020580946     -0.019391809      2.010733369
H       0.688460611     -0.827722633     -0.783691066
H       0.908690213      0.340620727      2.250192533
H      -0.698523009     -0.803229963      2.213361408
H      -0.984659355      0.346578133     -0.966695521
           6
  t=        26.50000    8    2
C       0.032559644      0.100149072     -0.789679835
N      -0.018143694     -0.024673115      2.012580696
H       0.693350870     -0.831484126     -0.786868636
H       0.886331043      0.379526740      2.259942361
H      -0.702242473     -0.779109184      2.231332154
H      -1.013061412      0.381468860     -0.995008652
           6
  t=        27.00000    8    2
C       0.033998605      0.098154201     -0.791014396
N      -0.015596011     -0.030328150      2.013993678
H       0.695323367     -0.831548823     -0.790022221
H       0.859981902      0.418295462      2.269568511
H      -0.703286028     -0.749668516      2.248849970
H      -1.040173687      0.415650570     -1.022741980
           6
  t=        27.50000    8    2
C       0.035320483      0.096011733     -0.791909739
N      -0.012819130     -0.036342328      2.014954715
H       0.694352844     -0.828077966     -0.793047547
H       0.829711572      0.457507184      2.279099756
H      -0.703289309     -0.715795538      2.266160706
H      -1.063252512      0.448168889     -1.049251790
           6
  t=        28.00000    8    2
C       0.036340027      0.093836571     -0.792422180
N      -0.009609944     -0.042745102      2.015439955
H       0.690601071     -0.821461046     -0.795812190
H       0.795345958      0.498208546      2.288510510
H      -0.704734346     -0.678319574      2.283642339
H      -1.080419816      0.478237097     -1.074020951
           6
  t=        28.50000    7    1
C       0.036901492      0.091765854     -0.792606237
N      -0.005602895     -0.049724900      2.015385345
H       0.684372590     -0.812262947     -0.798094319
H       0.755852741      0.542403592      2.297972200
H      -0.711284735     -0.637079787      2.302070289
H      -1.090508956      0.505240379     -1.096679020
           6
  t=        29.00000    7    1
C       0.037014266      0.089516684     -0.792632024
N      -0.000736439     -0.057379226      2.014419215
H       0.674970929     -0.799826790     -0.800795428
H       0.708430193      0.590955515      2.311667135
H      -0.720574574     -0.592231309      2.328157289
H      -1.093354658      0.532537082     -1.120030077
           6
  t=        29.50000    4    1
C       0.036490648      0.087594061     -0.792582902
N       0.004847313     -0.065067998      2.012279474
H       0.664147697     -0.786719135     -0.803331114
H       0.656456479      0.639316126      2.330194546
H      -0.734973321     -0.547014586      2.361966756
H      -1.087507677      0.555575832     -1.140686854
           6
  t=        30.00000    4    1
C       0.035226017      0.086078870     -0.792615860
N       0.011096890     -0.072675339      2.009541706
H       0.652791680     -0.774116179     -0.805617434
H       0.600896468      0.687327361      2.350104843
H      -0.754818529     -0.502898969      2.400654771
H      -1.072523239      0.574587126     -1.158567942
           6
  t=        30.50000    4    1
C       0.033188649      0.085132653     -0.792578648
N       0.017855137     -0.080116540      2.006006945
H       0.642035122     -0.763713546     -0.807833998
H       0.541957875      0.733321011      2.371999295
H      -0.778440098     -0.458891674      2.444296713
H      -1.048850115      0.588841568     -1.173218654
           6
  t=        31.00000    4    1
C       0.030346176      0.084867896     -0.792478886
N       0.024944453     -0.087386369      2.001933146
H       0.632739740     -0.756798079     -0.810019596
H       0.479833979      0.776356314      2.394530274
H      -0.803604942     -0.414090485      2.490722883
H      -1.016923319      0.598252495     -1.184576302
           6
  t=        31.50000    4    1
C       0.026717595      0.085353341     -0.792316831
N       0.032139845     -0.094436524      1.997610898
H       0.625486156     -0.754282478     -0.812216397
H       0.415016247      0.815339032      2.416283843
H      -0.827706551     -0.368063195      2.537426471
H      -0.977521550      0.602905018     -1.192712402
           6
  t=        32.00000    4    1
C       0.022394941      0.086590137     -0.792078373
N       0.039212282     -0.101171449      1.993324279
H       0.620446778     -0.756521428     -0.814460609
H       0.348360572      0.849208568      2.435867180
H      -0.848445529     -0.321076706      2.581985384
H      -0.931886067      0.603139949     -1.197890975
           6
  t=        32.50000    4    1
C       0.017561404      0.088495321     -0.791725873
N       0.045956891     -0.107468554      1.989319088
H       0.617341277     -0.763241403     -0.816774386
H       0.281030357      0.877114424      2.452020035
H      -0.864168671     -0.273986290      2.622377425
H      -0.881887806      0.599674060     -1.200670744
           6
  t=        33.00000    4    1
C       0.012501780      0.090895597     -0.791185888
N       0.052204741     -0.113203486      1.985787372
H       0.615499334     -0.773620801     -0.819162394
H       0.214371216      0.898528079      2.463694320
H      -0.873908622     -0.227994140      2.657109977
H      -0.830213262      0.593752049     -1.202049214
           6
  t=        33.50000    4    1
C       0.007598665      0.093532710     -0.790336193
N       0.057824152     -0.118268635      1.982865266
H       0.614007245     -0.786485244     -0.821617469
H       0.149773799      0.913277044      2.470089343
H      -0.877264329     -0.184426195      2.685214152
H      -0.780466287      0.587277799     -1.203610771
           6
  t=        34.00000    4    1
C       0.003301041      0.096085978     -0.789002027
N       0.062717772     -0.122583068      1.980638095
H       0.611881170     -0.800542831     -0.824130688
H       0.088559791      0.921529195      2.470651572
H      -0.874245065     -0.144579482      2.706175165
H      -0.736968818      0.582782361     -1.207562426
           6
  t=        34.50000    4    1
C       0.000047484      0.098224746     -0.786978687
N       0.066818187     -0.126095968      1.979148183
H       0.608218811     -0.814595194     -0.826704105
H       0.031901430      0.923753656      2.465053827
H      -0.865127579     -0.109636360      2.719845948
H      -0.703999370      0.583011582     -1.216453270
           6
  t=        35.00000    4    1
C      -0.001853248      0.099695256     -0.784092122
N       0.070082708     -0.128787233      1.978402903
H       0.602301654     -0.827682552     -0.829365123
H      -0.019222987      0.920698213      2.453168006
H      -0.850338703     -0.080634321      2.726361808
H      -0.684474110      0.590037533     -1.232437977
           6
  t=        35.50000    4    1
C      -0.002324404      0.100410156     -0.780272366
N       0.072480166     -0.130672526      1.978384783
H       0.593632500     -0.839161828     -0.832192760
H      -0.064038813      0.913496151      2.435057719
H      -0.830269696     -0.058504596      2.725995559
H      -0.678760023      0.604272790     -1.256364251
           6
  t=        36.00000    4    1
C      -0.001789181      0.100259531     -0.775682534
N       0.074074662     -0.131739155      1.979091147
H       0.583143650     -0.847775990     -0.835402440
H      -0.101845837      0.902936636      2.411277676
H      -0.806198570     -0.043948813      2.719944431
H      -0.683063309      0.625505185     -1.287789239
           6
  t=        36.50000    4    1
C      -0.000583376      0.099444699     -0.770529944
N       0.074908982     -0.132028698      1.980451841
H       0.570927900     -0.853397200     -0.838936102
H      -0.132215826      0.890304259      2.381963424
H      -0.779107621     -0.037663218      2.709073332
H      -0.693518912      0.651199175     -1.324328230
           6
  t=        37.00000    4    1
C       0.000938985      0.098214903     -0.765060762
N       0.075049306     -0.131597618      1.982374948
H       0.557236066     -0.856186262     -0.842725065
H      -0.154857665      0.877058059      2.347258931
H      -0.750173117     -0.040309691      2.694527661
H      -0.706196671      0.678535227     -1.363131065
           6
  t=        37.50000    4    1
C       0.002476856      0.096808092     -0.759501516
N       0.074589304     -0.130515118      1.984744650
H       0.542440865     -0.856554801     -0.846701175
H      -0.169630448      0.864789716      2.307295778
H      -0.720810201     -0.052503133      2.677790151
H      -0.717912081      0.705076482     -1.401573789
           6
  t=        38.00000    4    1
C       0.003801690      0.095427570     -0.754033362
N       0.073655575     -0.128860701      1.987417685
H       0.527002334     -0.855121790     -0.850807092
H      -0.176586706      0.855120893      2.262207576
H      -0.692704938     -0.074741467      2.660721309
H      -0.726424308      0.729002128     -1.437560300
           6
  t=        38.50000    4    1
C       0.004749125      0.094240079     -0.748789978
N       0.072409054     -0.126718372      1.990223104
H       0.511433399     -0.852658247     -0.855004033
H      -0.176027613      0.849521213      2.212178066
H      -0.667777383     -0.107303406      2.645518093
H      -0.730304095      0.749074103     -1.469543220
           6
  t=        39.00000    4    1
C       0.005204147      0.093379914     -0.743865229
N       0.071033417     -0.124165592      1.992973334
H       0.496258692     -0.850012282     -0.859274100
H      -0.168536112      0.849057913      2.157520572
H      -0.647985317     -0.150150112      2.634481059
H      -0.728717977      0.764511686     -1.496430448
           6
  t=        39.50000    4    1
C       0.005089216      0.092951184     -0.739322475
N       0.069700910     -0.121259420      1.995494683
H       0.481967250     -0.848014609     -0.863615980
H      -0.154961328      0.854133631      2.098765537
H      -0.634862626     -0.202853454      2.629500341
H      -0.721241981      0.774867995     -1.517476155
           6
  t=        40.00000    4    1
C       0.004357084      0.093026025     -0.735202643
N       0.068520858     -0.118030639      1.997672769
H       0.468962434     -0.847367796     -0.868033654
H      -0.136355940      0.864306288      2.036730083
H      -0.628864259     -0.264495904      2.631351976
H      -0.707728222      0.779938959     -1.532192918
           6
  t=        40.50000    4    1
C       0.002987877      0.093640152     -0.731529764
N       0.067502918     -0.114496971      1.999484979
H       0.457517881     -0.848542291     -0.872519916
H      -0.113893537      0.878286645      1.972546837
H      -0.628936615     -0.333482830      2.639215565
H      -0.688227918      0.779710617     -1.540299847
           6
  t=        41.00000    4    1
C       0.000988848      0.094788056     -0.728314121
N       0.066569988     -0.110686465      2.000989104
H       0.447749555     -0.851701185     -0.877035940
H      -0.088793485      0.894140109      1.907632198
H      -0.632772248     -0.407418818      2.650863769
H      -0.662960195      0.774340544     -1.541705376
           6
  t=        41.50000    4    1
C      -0.001653242      0.096385786     -0.725412748
N       0.065679910     -0.106627256      2.002244781
H       0.439668148     -0.856473678     -0.881870453
H      -0.062218661      0.909809757      1.843288615
H      -0.638302338     -0.483565747      2.662987694
H      -0.632098285      0.764167263     -1.536645206
           6
  t=        42.00000    4    1
C      -0.004874433      0.098337681     -0.722790955
N       0.064737294     -0.102382124      2.003334071
H       0.433083534     -0.862400823     -0.886937247
H      -0.035278058      0.923194662      1.781031347
H      -0.643069744     -0.558838607      2.672836448
H      -0.596236401      0.749759042     -1.525523138
           6
  t=        42.50000    4    1
C      -0.008579267      0.100503208     -0.720382660
N       0.063688209     -0.098016261      2.004303688
H       0.427706456     -0.868821166     -0.892113542
H      -0.008949690      0.932554486      1.722235432
H      -0.645329118     -0.630471793      2.678277201
H      -0.556239869      0.732008275     -1.509140063
           6
  t=        43.00000    4    1
C      -0.012637652      0.102696094     -0.718075439
N       0.062518155     -0.093588134      2.005166320
H       0.423193636     -0.874980534     -0.897252341
H       0.015938456      0.936615989      1.668045551
H      -0.644043539     -0.696257918      2.677873476
H      -0.513321873      0.712256917     -1.488866088
           6
  t=        43.50000    1    1
C      -0.016878275      0.104684521     -0.715697870
N       0.061230985     -0.089148108      2.005910606
H       0.419175828     -0.880151224     -0.902187022
H       0.038736769      0.934570624      1.619364105
H      -0.638650861     -0.754577785      2.670802490
H      -0.469119030      0.692426617     -1.466830681
           6
  t=        44.00000    1    1
C      -0.021003873      0.106235629     -0.713078869
N       0.059644315     -0.084727002      2.006470330
H       0.415016635     -0.883886748     -0.906673035
H       0.059819475      0.925925754      1.577338616
H      -0.627561805     -0.804536986      2.657517602
H      -0.425963797      0.674869946     -1.445996320
           6
  t=        44.50000    4    1
C      -0.024852064      0.107035428     -0.709859692
N       0.057832010     -0.080365808      2.006856713
H       0.410550723     -0.885657143     -0.910745394
H       0.078731464      0.910654478      1.541953722
H      -0.611162430     -0.845434621      2.637478941
H      -0.385809428      0.662691144     -1.430200163
           6
  t=        45.00000    4    1
C      -0.028186479      0.106834353     -0.705789593
N       0.055780789     -0.076180275      2.007084265
H       0.405611304     -0.885263898     -0.914393674
H       0.095435007      0.889338359      1.513501512
H      -0.589488798     -0.876428515      2.611209022
H      -0.351045217      0.658847728     -1.423454426
           6
  t=        45.50000    4    1
C      -0.031053742      0.105415294     -0.700601489
N       0.053716825     -0.072205945      2.007124753
H       0.400245725     -0.882699776     -0.917348300
H       0.108574337      0.862646787      1.491521792
H      -0.563943699     -0.897296312      2.577959813
H      -0.321547344      0.665519640     -1.427608315
           6
  t=        46.00000    4    1
C      -0.033479746      0.102804508     -0.694307163
N       0.051654584     -0.068521672      2.006981119
H       0.394440373     -0.878309761     -0.919588852
H       0.118128943      0.831728872      1.475533431
H      -0.534820120     -0.908080697      2.538158530
H      -0.296881389      0.682728423     -1.442528885
           6
  t=        46.50000    4    1
C      -0.035567129      0.099209098     -0.687112422
N       0.049606020     -0.065213958      2.006667985
H       0.388278120     -0.872681837     -0.921169502
H       0.124257119      0.798218414      1.464650160
H      -0.502557936     -0.909218364      2.492460686
H      -0.275792643      0.708600907     -1.465683886
           6
  t=        47.00000    4    1
C      -0.037439537      0.094944054     -0.679331253
N       0.047594562     -0.062369142      2.006204283
H       0.381926636     -0.866596620     -0.922196140
H       0.127239644      0.764273477      1.457609734
H      -0.467882184     -0.901678828      2.441849486
H      -0.256857811      0.740178284     -1.493212854
           6
  t=        47.50000    4    1
C      -0.039201075      0.090345282     -0.671283870
N       0.045671041     -0.060047308      2.005605053
H       0.375612868     -0.860951436     -0.922803276
H       0.127437758      0.732515997      1.452804715
H      -0.431978540     -0.887264054      2.387735755
H      -0.238946115      0.774373109     -1.521180884
           6
  t=        48.00000    4    1
C      -0.040921924      0.085712451     -0.663234884
N       0.043929558     -0.058233912      2.004870463
H       0.369581728     -0.856662209     -0.923137441
H       0.125256376      0.705802016      1.448380513
H      -0.396673396     -0.869054067      2.332014564
H      -0.221352824      0.808555155     -1.546333572
           6
  t=        48.50000    4    1
C      -0.042639815      0.081285200     -0.655376889
N       0.042519039     -0.056781083      2.003972771
H       0.364046538     -0.854549761     -0.923339550
H       0.121072765      0.686784291      1.442502694
H      -0.364522109     -0.851789444      2.276973233
H      -0.203733162      0.840725119     -1.566304294
           6
  t=        49.00000    4    1
C      -0.044365208      0.077238591     -0.647839154
N       0.041632743     -0.055381724      2.002854197
H       0.359137411     -0.855224994     -0.923525760
H       0.115134575      0.677343652      1.433784741
H      -0.338564817     -0.841663214      2.224883313
H      -0.185985392      0.869454765     -1.579519873
           6
  t=        49.50000    4    1
C      -0.046085464      0.073686272     -0.640703165
N       0.041454229     -0.053648514      2.001451567
H       0.354859711     -0.858994615     -0.923772322
H       0.107467537      0.678130198      1.421689047
H      -0.321490875     -0.844761475      2.177243675
H      -0.168152190      0.893752032     -1.585017364
           6
  t=        50.00000    4    1
C      -0.047767781      0.070686761     -0.634016248
N       0.042071958     -0.051308640      1.999732764
H       0.351073381     -0.865811144     -0.924109987
H       0.097846858      0.688462075      1.406652153
H      -0.314432803     -0.864252657      2.134138172
H      -0.150355855      0.912932393     -1.582276641
           6
  t=        50.50000    4    1
C      -0.049362753      0.068252047     -0.627801321
N       0.043433529     -0.048362254      1.997698252
H       0.347501693     -0.875283467     -0.924527888
H       0.085854364      0.706608202      1.389863746
H      -0.316392233     -0.898467377      2.094434727
H      -0.132760063      0.926525812     -1.571099744
           6
  t=        51.00000    4    1
C      -0.050809772      0.066357319     -0.622063413
N       0.045386899     -0.045041774      1.995344698
H       0.343767232     -0.886742719     -0.924979846
H       0.071001904      0.730255024      1.372867223
H      -0.324929608     -0.941933164      2.056701568
H      -0.115547892      0.934229230     -1.551538294
           6
  t=        51.50000    4    1
C      -0.052044121      0.064949888     -0.616792655
N       0.047757871     -0.041644516      1.992638963
H       0.339445141     -0.899344530     -0.925387493
H       0.052868596      0.756951010      1.357205550
H      -0.337361306     -0.988145914      2.019928650
H      -0.098907441      0.935904058     -1.523860656
           6
  t=        52.00000    4    1
C      -0.053003207      0.063954795     -0.611962893
N       0.050398095     -0.038408882      1.989520952
H       0.334114921     -0.912178677     -0.925645334
H       0.031191232      0.784423687      1.344223752
H      -0.351501106     -1.031602730      1.983674440
H      -0.083025313      0.931614606     -1.488552233
           6
  t=        52.50000    4    1
C      -0.053630731      0.063275581     -0.607525857
N       0.053195716     -0.035481612      1.985918088
H       0.327401023     -0.924365901     -0.925631668
H       0.005882797      0.810746303      1.335007710
H      -0.365822410     -1.068413776      1.947909938
H      -0.068081693      0.921705937     -1.446357941
           6
  t=        53.00000    4    1
C      -0.053879080      0.062789276     -0.603401896
N       0.056068680     -0.032934503      1.981756738
H       0.318998467     -0.935129553     -0.925226636
H      -0.022994466      0.834381173      1.330401054
H      -0.379342314     -1.096103664      1.912834966
H      -0.054243619      0.906925428     -1.398366401
           6
  t=        53.50000    4    1
C      -0.053711172      0.062335526     -0.599468150
N       0.058954900     -0.030791098      1.976967640
H       0.308686811     -0.943843908     -0.924332697
H      -0.055267238      0.854154339      1.331050204
H      -0.391453558     -1.113208782      1.878758185
H      -0.041650089      0.888594140     -1.346130763
           6
  t=        54.00000    4    1
C      -0.053102586      0.061701811     -0.595546576
N       0.061804551     -0.029047590      1.971487415
H       0.296335671     -0.950065751     -0.922894158
H      -0.090684854      0.869206483      1.337447966
H      -0.401790075     -1.118936512      1.846037062
H      -0.030385919      0.868813094     -1.291796280
           6
  t=        54.50000    4    1
C      -0.052043991      0.060612376     -0.591398574
N       0.064575299     -0.027685864      1.965258604
H       0.281905377     -0.953557489     -0.920916079
H      -0.128944956      0.878951338      1.349960944
H      -0.410141497     -1.112946819      1.815052661
H      -0.020447081      0.850622606     -1.238148226
           6
  t=        55.00000    4    1
C      -0.050542987      0.058738064     -0.586739519
N       0.067230157     -0.026680136      1.958229979
H       0.265445058     -0.954309031     -0.918482382
H      -0.169712273      0.883052320      1.368835992
H      -0.416408945     -1.095246990      1.786199829
H      -0.011712437      0.837917416     -1.188421527
           6
  t=        55.50000    1    1
C      -0.048623130      0.055751789     -0.581287695
N       0.069737434     -0.025998652      1.950358366
H       0.247090269     -0.952562628     -0.915772860
H      -0.212629386      0.881422621      1.394185394
H      -0.420592785     -1.066183491      1.759876825
H      -0.003953822      0.834826409     -1.145701440
           6
  t=        56.00000    1    1
C      -0.046498651      0.051393887     -0.574860433
N       0.071980367     -0.025583269      1.941726818
H       0.227237464     -0.948798270     -0.912701314
H      -0.256385231      0.874177090      1.424761672
H      -0.421477006     -1.026303804      1.734960808
H       0.004078409      0.844546130     -1.111032841
           6
  t=        56.50000    1    1
C      -0.044016737      0.045715702     -0.567377911
N       0.074046652     -0.025391155      1.932200316
H       0.205978379     -0.943868039     -0.910070741
H      -0.301583541      0.861883428      1.461569219
H      -0.420757072     -0.977208837      1.713290203
H       0.011553715      0.867755397     -1.085529942
           6
  t=        57.00000    1    1
C      -0.041197443      0.038989193     -0.558918833
N       0.075956645     -0.025327066      1.921783382
H       0.183628166     -0.938838422     -0.908418926
H      -0.347897303      0.845388446      1.504218318
H      -0.419110762     -0.921160675      1.695028826
H       0.018463673      0.902374433     -1.067554784
           6
  t=        57.50000    1    1
C      -0.038050879      0.031669502     -0.549631918
N       0.077774265     -0.025236663      1.910512028
H       0.160497845     -0.934923644     -0.908361262
H      -0.395035431      0.825887690      1.552166476
H      -0.417753787     -0.861633772      1.680021531
H       0.024654159      0.944332656     -1.054523915
           6
  t=        58.00000    1    1
C      -0.034582305      0.024258845     -0.539662379
N       0.079624766     -0.024883388      1.898460696
H       0.136841075     -0.933297945     -0.910515402
H      -0.442739337      0.804837174      1.604796653
H      -0.418680245     -0.803545873      1.667627039
H       0.029929327      0.988999390     -1.043866638
           6
  t=        58.50000    1    1
C      -0.030795661      0.017196325     -0.529117645
N       0.081695123     -0.023952426      1.885739756
H       0.112807454     -0.934851130     -0.915392846
H      -0.490728304      0.783751603      1.661521083
H      -0.424719453     -0.752998670      1.656662462
H       0.034137189      1.032248978     -1.033555234
           6
  t=        59.00000    1    1
C      -0.026694467      0.010802327     -0.518070262
N       0.084184926     -0.022120352      1.872471114
H       0.088423651     -0.939954616     -0.923281727
H      -0.538579393      0.763914002      1.721857835
H      -0.438977157     -0.716018563      1.645685097
H       0.037202639      1.070887648     -1.022206918
           6
  t=        59.50000    1    1
C      -0.022282553      0.005267508     -0.506576448
N       0.087192962     -0.019191154      1.858741185
H       0.063615584     -0.948327378     -0.934159127
H      -0.585579824      0.746097069      1.785418363
H      -0.463415975     -0.696386982      1.633683194
H       0.039122592      1.102649522     -1.008975599
           6
  t=        60.00000    1    1
C      -0.017566192      0.000669164     -0.494693172
N       0.090604974     -0.015201956      1.844565811
H       0.038264824     -0.959062956     -0.947664739
H      -0.630641521      0.730425872      1.851792766
H      -0.497392960     -0.694031071      1.620701843
H       0.039946706      1.126025685     -0.993398605
           6
  t=        60.50000    1    1
C      -0.012557225     -0.002999076     -0.482486379
N       0.094095469     -0.010390585      1.829908688
H       0.012275339     -0.970807629     -0.963140536
H      -0.672355383      0.716450942      1.920392882
H      -0.537641313     -0.705540844      1.607750684
H       0.039758573      1.140082223     -0.975265773
           6
  t=        61.00000    1    1
C      -0.007276509     -0.005795313     -0.470030270
N       0.097246914     -0.005067556      1.814734265
H      -0.014371062     -0.982015254     -0.979709305
H      -0.709183813      0.703386973      1.990347693
H      -0.579738403     -0.726178882      1.596145547
H       0.038665900      1.144327055     -0.954521734
           6
  t=        61.50000    1    1
C      -0.001760177     -0.007802667     -0.457401053
N       0.099675766      0.000484600      1.799042382
H      -0.041565838     -0.991194170     -0.996349066
H      -0.739697817      0.690394679      2.060492407
H      -0.619607138     -0.751559757      1.586962671
H       0.036813329      1.138637675     -0.931190249
           6
  t=        62.00000    1    1
C       0.003921377     -0.009110904     -0.444668703
N       0.101098227      0.006040706      1.782869523
H      -0.068980184     -0.997100609     -1.011934359
H      -0.762767047      0.676806761      2.129414752
H      -0.654179557     -0.778298030      1.580858559
H       0.034455108      1.123249700     -0.905314762
           6
  t=        62.50000    1    1
C       0.009617369     -0.009807292     -0.431891793
N       0.101345830      0.011416677      1.766283181
H      -0.095850782     -0.998856245     -1.025294300
H      -0.777657248      0.662269359      2.195502409
H      -0.681364373     -0.803949549      1.578098804
H       0.032138505      1.098791333     -0.876959786
           6
  t=        63.00000    1    5
C       0.015064907     -0.009981684     -0.419132261
N       0.100348625      0.016430049      1.749409277
H      -0.120844101     -0.995925786     -1.035491107
H      -0.784113446      0.646879087      2.257126368
H      -0.699608841     -0.826592659      1.578685817
H       0.030824371      1.066314090     -0.846448610
           6
  t=        63.50000    1    5
C       0.020577925     -0.009948425     -0.407001052
N       0.097834380      0.021278817      1.732133413
H      -0.144786248     -0.989737903     -1.038558920
H      -0.779964152      0.628676544      2.316267535
H      -0.709491632     -0.845466777      1.582093535
H       0.029790498      1.029437299     -0.810338045
           6
  t=        64.00000    1    5
C       0.026254580     -0.009938775     -0.395416359
N       0.093746273      0.025904677      1.714531427
H      -0.168101372     -0.979973347     -1.034225427
H      -0.765068535      0.607616973      2.371878938
H      -0.710692445     -0.859863002      1.588075085
H       0.028620712      0.990741237     -0.769634307
           6
  t=        64.50000    1    5
C       0.032155277     -0.010249688     -0.384244974
N       0.088064577      0.030250574      1.696684090
H      -0.191022842     -0.966531018     -1.022458182
H      -0.739484985      0.583839029      2.422972007
H      -0.703091307     -0.869314944      1.596348939
H       0.027041650      0.953848288     -0.725808124
           6
  t=        65.00000    1    5
C       0.038318695     -0.011238425     -0.373309447
N       0.080801315      0.034259244      1.678674306
H      -0.213685635     -0.949559307     -1.003448254
H      -0.703444624      0.557639951      2.468617397
H      -0.686741309     -0.873568550      1.606600510
H       0.024844883      0.923405045     -0.680689245
           6
  t=        65.50000    1    5
C       0.044775696     -0.013266984     -0.362413994
N       0.071999780      0.037874930      1.660587551
H      -0.236210026     -0.929494742     -0.977627672
H      -0.657342498      0.529457346      2.507958973
H      -0.661885782     -0.872592271      1.618475507
H       0.021820085      0.904463817     -0.636154019
           6
  t=        66.00000    1    5
C       0.051558026     -0.016577216     -0.351386927
N       0.061737907      0.041048335      1.642512188
H      -0.258780988     -0.907116612     -0.945701528
H      -0.601740400      0.499857011      2.540241911
H      -0.629010919     -0.866633373      1.631576725
H       0.017739359      0.901050007     -0.593617324
           6
  t=        66.50000    1    5
C       0.058699747     -0.021140857     -0.340114698
N       0.050134381      0.043745771      1.624537586
H      -0.281730301     -0.883600650     -0.908675396
H      -0.537374486      0.469527169      2.564859131
H      -0.588929575     -0.856334068      1.645471497
H       0.012428888      0.914424873     -0.553627555
           6
  t=        67.00000    1    5
C       0.066233523     -0.026596764     -0.328537083
N       0.037355383      0.045963487      1.606748416
H      -0.305612457     -0.860526564     -0.867845336
H      -0.465156248      0.439274069      2.581412375
H      -0.542879531     -0.842913385      1.659721582
H       0.005894523      0.942332974     -0.515945704
           6
  t=        67.50000    1    5
C       0.074187958     -0.032341705     -0.316611496
N       0.023618039      0.047746023      1.589214342
H      -0.331236767     -0.839768580     -0.824704681
H      -0.386153700      0.410012961      2.589778461
H      -0.492595507     -0.828391350      1.673947622
H      -0.001609105      0.979951824     -0.480050864
           6
  t=        68.00000    1    5
C       0.082585897     -0.037709365     -0.304288284
N       0.009183561      0.049201493      1.571976513
H      -0.359593304     -0.823204950     -0.780733694
H      -0.301543016      0.382746726      2.590161707
H      -0.440268350     -0.815750512      1.687930774
H      -0.009626268      1.021703506     -0.445611225
           6
  t=        68.50000    4   11
C       0.091434874     -0.042129488     -0.291519218
N      -0.005670436      0.050495376      1.555037121
H      -0.391618773     -0.812260297     -0.737100147
H      -0.212517866      0.358520825      2.583099292
H      -0.388261776     -0.808774621      1.701713866
H      -0.017609894      1.062661783     -0.412643717
           6
  t=        69.00000    4   11
C       0.100564955     -0.045144349     -0.278078996
N      -0.020662015      0.051780354      1.538203873
H      -0.427137038     -0.807870139     -0.694562857
H      -0.120200970      0.338385939      2.569528776
H      -0.338651369     -0.811175142      1.715484311
H      -0.024431720      1.098851442     -0.381525341
           6
  t=        69.50000    4   11
C       0.110028706     -0.046649147     -0.264192417
N      -0.035666591      0.053158824      1.521602746
H      -0.466600188     -0.808930932     -0.652920301
H      -0.025464959      0.323176803      2.550133506
H      -0.292363833     -0.825343205      1.729652252
H      -0.030197281      1.128054777     -0.352624843
           6
  t=        70.00000    4   11
C       0.119671208     -0.046636160     -0.249913199
N      -0.050607848      0.054546928      1.505243816
H      -0.508919447     -0.813799164     -0.611727708
H       0.070980076      0.313515124      2.525527254
H      -0.249407288     -0.850941613      1.744159795
H      -0.034492896      1.148742590     -0.326443243
           6
  t=        70.50000    3    8
C       0.129283956     -0.045208586     -0.235306067
N      -0.065444299      0.055704935      1.489213107
H      -0.552350812     -0.820316065     -0.570475048
H       0.168478204      0.309683881      2.495862147
H      -0.209319837     -0.885032914      1.758419224
H      -0.036962334      1.160095296     -0.303479574
           6
  t=        71.00000    3   11
C       0.138634946     -0.042523113     -0.220422224
N      -0.080111681      0.056331117      1.473659388
H      -0.594863705     -0.826305592     -0.528853221
H       0.266249290      0.311599217      2.460738942
H      -0.171789082     -0.923364188      1.771525888
H      -0.037298904      1.161825830     -0.284196452
           6
  t=        71.50000    3   11
C       0.147484425     -0.038755066     -0.205307773
N      -0.094475280      0.056157310      1.458776493
H      -0.634424762     -0.829906546     -0.486925678
H       0.363111093      0.318850758      2.419394937
H      -0.136945816     -0.961709831      1.782597052
H      -0.035240008      1.154071251     -0.269029202
           6
  t=        72.00000    3   11
C       0.155613151     -0.034081129     -0.189989780
N      -0.108349657      0.054997622      1.444748151
H      -0.669255717     -0.829726608     -0.445076762
H       0.457554978      0.330787890      2.370977351
H      -0.105236072     -0.996664598      1.791015701
H      -0.030575313      1.137371202     -0.258354227
           6
  t=        72.50000    4    8
C       0.162829632     -0.028682505     -0.174488504
N      -0.121514857      0.052751333      1.431728355
H      -0.697909793     -0.824853916     -0.403953422
H       0.547819316      0.346622244      2.314862207
H      -0.077261022     -1.025774979      1.796476150
H      -0.023164846      1.112705686     -0.252493338
           6
  t=        73.00000    4    8
C       0.168975052     -0.022758640     -0.158824940
N      -0.133738309      0.049386796      1.419831955
H      -0.719287077     -0.814811799     -0.364384819
H       0.632061067      0.365511055      2.250855936
H      -0.053653822     -1.047390365      1.798930875
H      -0.012972798      1.081604665     -0.251722035
           6
  t=        73.50000    4   11
C       0.173931211     -0.016542664     -0.143013902
N      -0.144799481      0.044922099      1.409127237
H      -0.732640281     -0.799497750     -0.327289600
H       0.708570242      0.386620474      2.179218069
H      -0.035002593     -1.060474528      1.798518409
H      -0.000105063      1.046287773     -0.256292181
           6
  t=        74.00000    4   11
C       0.177620481     -0.010320834     -0.127068865
N      -0.154495320      0.039414924      1.399645942
H      -0.737552464     -0.779141005     -0.293644381
H       0.775840358      0.409137009      2.100652779
H      -0.021830035     -1.064437729      1.795506844
H       0.015153597      1.009814981     -0.266479962
           6
  t=        74.50000    2    5
C       0.180006867     -0.004432689     -0.110996017
N      -0.162649971      0.032957888      1.391387107
H      -0.733938078     -0.754275800     -0.264443221
H       0.832642887      0.432266023      2.016230593
H      -0.014558754     -1.059056682      1.790268632
H       0.032353943      0.976047825     -0.282647258
           6
  t=        75.00000    2    5
C       0.181090338      0.000764434     -0.094798626
N      -0.169119680      0.025680795      1.384324867
H      -0.722061082     -0.725748401     -0.240679598
H       0.878046710      0.455215801      1.927339364
H      -0.013474894     -1.044463086      1.783281405
H       0.050980227      0.949207194     -0.305267779
           6
  t=        75.50000    2    5
C       0.180898990      0.004989382     -0.078481265
N      -0.173804139      0.017749930      1.378408869
H      -0.702581993     -0.694732790     -0.223310868
H       0.911469354      0.477209026      1.835567007
H      -0.018684043     -1.021197870      1.775150366
H       0.070652776      0.932822530     -0.334823216
           6
  t=        76.00000    2    5
C       0.179485021      0.008153749     -0.062095255
N      -0.176648910      0.009379177      1.373571755
H      -0.676660109     -0.662809655     -0.213262227
H       0.932657963      0.497478391      1.742696841
H      -0.030070701     -0.990369547      1.766676261
H       0.091290347      0.928431229     -0.371425476
           6
  t=        76.50000    2    5
C       0.176939701      0.010437556     -0.045777837
N      -0.177654050      0.000840115      1.369724827
H      -0.646075351     -0.632030345     -0.211418376
H       0.941709648      0.515296463      1.650629682
H      -0.047251967     -0.953913600      1.758969244
H       0.113106885      0.934830640     -0.414334321
           6
  t=        77.00000    2    8
C       0.173418238      0.012257130     -0.029772532
N      -0.176882088     -0.007520285      1.366749437
H      -0.613282734     -0.604935488     -0.218626871
H       0.939090822      0.530014484      1.561334377
H      -0.069533506     -0.914953563      1.753624514
H       0.136417441      0.948555618     -0.461718126
           6
  t=        77.50000    2    8
C       0.169137579      0.014156528     -0.014432594
N      -0.174476823     -0.015258454      1.364488097
H      -0.581170027     -0.584424660     -0.235615379
H       0.925742829      0.541112766      1.476821970
H      -0.095836994     -0.878188058      1.752942860
H       0.161504962      0.965082949     -0.510766767
           6
  t=        78.00000    2    8
C       0.164286759      0.016577370     -0.000212973
N      -0.170716020     -0.021734462      1.362704024
H      -0.552048341     -0.573419724     -0.262504395
H       0.903367660      0.548252631      1.398959629
H      -0.124349424     -0.850495394      1.759725913
H       0.188774105      0.980401773     -0.557321543
           6
  t=        78.50000    2    8
C       0.159335818      0.019916952      0.013033693
N      -0.165517977     -0.026880829      1.361206762
H      -0.529674098     -0.573640267     -0.301372959
H       0.872096871      0.551345895      1.328606863
H      -0.156390096     -0.833691305      1.776028356
H       0.216437170      0.992467473     -0.601325986
           6
  t=        79.00000    2    8
C       0.154332067      0.024247280      0.024999829
N      -0.159061534     -0.030494878      1.359873277
H      -0.513753436     -0.585229244     -0.351802167
H       0.833727161      0.550464391      1.267385080
H      -0.191653968     -0.829875644      1.803016969
H       0.244020074      0.999777591     -0.640615466
           6
  t=        79.50000    2    8
C       0.149158473      0.029422163      0.035331551
N      -0.151555426     -0.032688278      1.358719166
H      -0.501927840     -0.606353678     -0.412007080
H       0.790620725      0.546034825      1.216762475
H      -0.229991016     -0.837337535      1.839871320
H       0.270945830      1.001653835     -0.673625746
           6
  t=        80.00000    2    5
C       0.143615821      0.035160019      0.043617346
N      -0.143278452     -0.033825428      1.357900804
H      -0.490909954     -0.633950246     -0.478976446
H       0.745824101      0.538974169      1.178049261
H      -0.270888206     -0.851492257      1.883914865
H       0.296613254      0.997946985     -0.699274687
           6
  t=        80.50000    2    5
C       0.137516497      0.041140592      0.049436875
N      -0.134582361     -0.034370795      1.357646445
H      -0.477737249     -0.664766178     -0.549171980
H       0.703049609      0.530808785      1.152368508
H      -0.313320572     -0.867035195      1.931623054
H       0.320443731      0.988840011     -0.716865602
           6
  t=        81.00000    2    5
C       0.130731807      0.047068776      0.052419819
N      -0.125857532     -0.034769670      1.358182850
H      -0.460397081     -0.696048629     -0.619236230
H       0.666453090      0.523680879      1.140587563
H      -0.355988415     -0.879554857      1.979637997
H       0.341925507      0.974727182     -0.726006766
           6
  t=        81.50000    2    5
C       0.123196423      0.052698628      0.052289423
N      -0.117481250     -0.035397246      1.359691972
H      -0.437845142     -0.725754125     -0.686370074
H       0.640142246      0.520120080      1.143226759
H      -0.397622382     -0.886038947      2.025266296
H       0.360657185      0.956164568     -0.726557117
           6
  t=        82.00000    2    5
C       0.114894964      0.057833759      0.048892326
N      -0.109758164     -0.036538534      1.362286659
H      -0.409760732     -0.752471376     -0.748396396
H       0.627400968      0.522502513      1.160433466
H      -0.437161595     -0.884706739      2.066540141
H       0.376389304      0.933882409     -0.718615210
           6
  t=        82.50000    2    5
C       0.105844420      0.062315800      0.042218014
N      -0.102857665     -0.038364498      1.365991594
H      -0.376288142     -0.775255496     -0.803665402
H       0.629770948      0.532276463      1.192094130
H      -0.473801599     -0.874658103      2.102088036
H       0.389071335      0.908848556     -0.702563572
           6
  t=        83.00000    2    5
C       0.096075175      0.066004967      0.032404710
N      -0.096769808     -0.040906946      1.370738433
H      -0.337851611     -0.793478551     -0.850927824
H       0.646393961      0.549288079      1.237960389
H      -0.506972799     -0.855573812      2.130976837
H       0.398916167      0.882375998     -0.679166157
           6
  t=        83.50000    2    5
C       0.085610849      0.068756367      0.019729753
N      -0.091312205     -0.044060541      1.376391429
H      -0.295041506     -0.806730133     -0.889237922
H       0.674103013      0.571661351      1.297554254
H      -0.536297079     -0.827525072      2.152587825
H       0.406487645      0.856263205     -0.649688090
           6
  t=        84.00000    2    8
C       0.074449644      0.070397684      0.004587285
N      -0.086194839     -0.047625799      1.382794028
H      -0.248542345     -0.814761185     -0.917894874
H       0.708335522      0.596376745      1.369875696
H      -0.561553019     -0.790880497      2.166551053
H       0.412803262      0.832929268     -0.615978022
           6
  t=        84.50000    2    8
C       0.062553357      0.070720983     -0.012547108
N      -0.081105195     -0.051370117      1.389806741
H      -0.199084112     -0.817459358     -0.936418890
H       0.744328482      0.620154434      1.453203158
H      -0.582668462     -0.746282247      2.172738334
H       0.419396527      0.815427812     -0.580390575
           6
  t=        85.00000    2    8
C       0.049855535      0.069507784     -0.031172858
N      -0.075769643     -0.055073765      1.397319844
H      -0.147411022     -0.814852259     -0.944558077
H       0.777989478      0.640137270      1.545157501
H      -0.599758033     -0.694664221      2.171312509
H       0.428208045      0.807125904     -0.545397010
           6
  t=        85.50000    2    8
C       0.036300304      0.066604191     -0.050843181
N      -0.069975211     -0.058549111      1.405246278
H      -0.094264287     -0.807149350     -0.942329521
H       0.806259760      0.654193193      1.642953184
H      -0.613216963     -0.637287528      2.162827566
H       0.441139173      0.810851562     -0.512858807
           6
  t=        86.00000    2    8
C       0.021906468      0.062030428     -0.071233228
N      -0.063560825     -0.061640742      1.413503923
H      -0.040364071     -0.794836480     -0.930101747
H       0.827126372      0.660938114      1.743693228
H      -0.623869819     -0.575767425      2.148371938
H       0.459285685      0.827689790     -0.483325846
           6
  t=        86.50000    2    8
C       0.006817464      0.056057452     -0.092141677
N      -0.056392742     -0.064218002      1.421993988
H       0.013634699     -0.778824331     -0.908722410
H       0.839479451      0.659625407      1.844617869
H      -0.633153968     -0.512054730      2.129720491
H       0.482283586      0.856207143     -0.455990015
           6
  t=        87.00000    2    8
C      -0.008710042      0.049187688     -0.113415420
N      -0.048337661     -0.066170205      1.430588109
H       0.067241642     -0.760634173     -0.879678966
H       0.842917309      0.649986031      1.943262799
H      -0.643266035     -0.448302696      2.109375911
H       0.508313342      0.892826935     -0.429441745
           6
  t=        87.50000    2    8
C      -0.024379764      0.042060529     -0.134861563
N      -0.039251154     -0.067414723      1.439144658
H       0.120313076     -0.742565323     -0.845227671
H       0.837550474      0.632065147      2.037516351
H      -0.657088161     -0.386539688      2.090285946
H       0.534755724      0.933070515     -0.402589778
           6
  t=        88.00000    2    8
C      -0.039944418      0.035353999     -0.156214655
N      -0.029005926     -0.067922500      1.447570278
H       0.173321891     -0.727719066     -0.808343670
H       0.823847897      0.606081350      2.125602303
H      -0.677622364     -0.328159419      2.075061269
H       0.558957831      0.972737441     -0.375156995
           6
  t=        88.50000    2    5
C      -0.055271504      0.029707436     -0.177188602
N      -0.017565936     -0.067744627      1.455919124
H       0.227651135     -0.719629424     -0.772262818
H       0.802570379      0.572305357      2.206032049
H      -0.706887975     -0.273484310      2.064880255
H       0.578716752      1.008510825     -0.347756196
           6
  t=        89.00000    3   11
C      -0.070290838      0.025462661     -0.197508193
N      -0.005016097     -0.066931357      1.464300970
H       0.284419223     -0.720852059     -0.739226690
H       0.774579990      0.531167402      2.277339198
H      -0.745150709     -0.222144572      2.058791031
H       0.592661821      1.038774547     -0.320529684
           6
  t=        89.50000    2   11
C      -0.084896388      0.022762083     -0.216975252
N       0.008369938     -0.065578998      1.472896465
H       0.344139620     -0.732224721     -0.710105560
H       0.740891673      0.483375607      2.338351972
H      -0.790433422     -0.173389816      2.054368334
H       0.599827234      1.062550341     -0.293879803
           6
  t=        90.00000    2   11
C      -0.098941259      0.021502233     -0.235486996
N       0.022284827     -0.063763174      1.481798761
H       0.406360936     -0.752188631     -0.684376587
H       0.702099407      0.429466683      2.388733384
H      -0.839769882     -0.126410001      2.049626858
H       0.599625446      1.079215390     -0.268525183
           6
  t=        90.50000    2   11
C      -0.112167526      0.021492463     -0.253223041
N       0.036248489     -0.061603282      1.491349733
H       0.469426332     -0.777901216     -0.660428628
H       0.660034137      0.370492835      2.428075684
H      -0.889134692     -0.080887000      2.041525840
H       0.591456285      1.088485772     -0.245239957
           6
  t=        91.00000    2   11
C      -0.124304896      0.022429597     -0.270292869
N       0.049902679     -0.059153701      1.501701986
H       0.530887500     -0.805855653     -0.636904739
H       0.615988966      0.307253488      2.456456002
H      -0.935410926     -0.036783836      2.028476162
H       0.575117272      1.090383684     -0.224685823
           6
  t=        91.50000    2   11
C      -0.135106697      0.024029168     -0.286774817
N       0.062952238     -0.056459377      1.512915359
H       0.588226580     -0.833004633     -0.612995946
H       0.571314111      0.240613792      2.474510261
H      -0.976251871      0.005773670      2.009702207
H       0.550593299      1.085134066     -0.207430740
           6
  t=        92.00000    2   11
C      -0.144388626      0.026055757     -0.302713500
N       0.075155551     -0.053563882      1.524960364
H       0.639323972     -0.857104611     -0.588445812
H       0.527466057      0.171488817      2.483582690
H      -1.010001165      0.046611071      1.985008168
H       0.518053757      1.073161265     -0.193938637
           6
  t=        92.50000    2    5
C      -0.152041008      0.028312863     -0.318131478
N       0.086308933     -0.050508708      1.537715666
H       0.682593902     -0.876655507     -0.563384281
H       0.486024902      0.100773700      2.485912475
H      -1.035520409      0.085567206      1.954582877
H       0.477890089      1.055147429     -0.184553106
           6
  t=        93.00000    2    5
C      -0.158027911      0.030616958     -0.333042224
N       0.096236552     -0.047323917      1.550967831
H       0.716944849     -0.890706123     -0.538163960
H       0.448631003      0.029188180      2.484730044
H      -1.052023920      0.122519879      1.918874287
H       0.430783027      1.032146736     -0.179473957
           6
  t=        93.50000    2    5
C      -0.162383735      0.032768791     -0.347460038
N       0.104793893     -0.044012802      1.564430542
H       0.741697700     -0.898678766     -0.513246782
H       0.416781876     -0.042953890      2.484021734
H      -1.058958756      0.157393628      1.878527427
H       0.377778758      1.005761317     -0.178722186
           6
  t=        94.00000    2    5
C      -0.165208641      0.034523253     -0.361408071
N       0.111885767     -0.040539580      1.577802735
H       0.756494838     -0.900236924     -0.489132185
H       0.391485896     -0.115916142      2.487702817
H      -1.055941168      0.190151128      1.834363633
H       0.320357959      0.978376895     -0.182076179
           6
  t=        94.50000    2    5
C      -0.166660171      0.035562441     -0.374925242
N       0.117489456     -0.036837962      1.590862770
H       0.761223702     -0.895195311     -0.466325364
H       0.372905613     -0.190404939      2.498282427
H      -1.042751006      0.220773944      1.787382327
H       0.260441986      0.953397168     -0.188996395
           6
  t=        95.00000    2    5
C      -0.166932710      0.035492174     -0.388068873
N       0.121665271     -0.032850199      1.603545742
H       0.755978256     -0.883476543     -0.445329379
H       0.360240254     -0.267015754      2.515785720
H      -1.019385426      0.249247549      1.738767109
H       0.200211324      0.935245812     -0.198604173
           6
  t=        95.50000    2    5
C      -0.166217467      0.033895342     -0.400904538
N       0.124545211     -0.028573307      1.615939739
H       0.741080637     -0.865125393     -0.426651146
H       0.351975868     -0.345597635      2.537832437
H      -0.986169522      0.275567203      1.689883880
H       0.141625506      0.928746357     -0.209821397
           6
  t=        96.00000    3   11
C      -0.164662420      0.030461175     -0.413475265
N       0.126311866     -0.024075730      1.628201353
H       0.717241019     -0.840409926     -0.410828676
H       0.346300645     -0.425035729      2.560799704
H      -0.943912803      0.299777231      1.642300960
H       0.085820698      0.937658997     -0.221718907
           6
  t=        96.50000    2    5
C      -0.162556884      0.025146603     -0.425734651
N       0.127199154     -0.019484310      1.640365833
H       0.687573808     -0.810597337     -0.398317323
H       0.340785439     -0.503572164      2.581158716
H      -0.893849035      0.322187318      1.598608505
H       0.033540064      0.963458593     -0.233944990
           6
  t=        97.00000    2    5
C      -0.159923758      0.018519789     -0.437435808
N       0.127478306     -0.015120028      1.652356538
H       0.654087129     -0.777602924     -0.387976486
H       0.334615738     -0.578446440      2.596027734
H      -0.838979969      0.343421175      1.560107230
H      -0.016904176      1.002370982     -0.247933977
           6
  t=        97.50000    2    5
C      -0.156711659      0.011066837     -0.448629472
N       0.127455418     -0.011103852      1.664420389
H       0.617425298     -0.742471337     -0.380423003
H       0.327204647     -0.648442341      2.603719899
H      -0.782524456      0.364413413      1.526943980
H      -0.067215403      1.049182832     -0.264355732
           6
  t=        98.00000    1    8
C      -0.153123522      0.003466508     -0.459272884
N       0.127483924     -0.007632331      1.676642092
H       0.580515754     -0.707883339     -0.375912826
H       0.317973488     -0.712004450      2.603207973
H      -0.728793986      0.386601083      1.499431249
H      -0.117925313      1.098231480     -0.283925615
           6
  t=        98.50000    1    5
C      -0.149549849     -0.003552000     -0.469352495
N       0.127920904     -0.004927022      1.689076167
H       0.547866771     -0.677878607     -0.374279293
H       0.306502688     -0.767787607      2.594048984
H      -0.682320553      0.411894566      1.477406348
H      -0.168902357      1.144697002     -0.307123473
           6
  t=        99.00000    1    5
C      -0.146496803     -0.009294545     -0.478912647
N       0.129042817     -0.003189975      1.701772290
H       0.524953173     -0.657357927     -0.374938516
H       0.292521673     -0.814762291      2.576218456
H      -0.646594116      0.442214130      1.460343198
H      -0.219675257      1.185072713     -0.334144881
           6
  t=        99.50000    1    8
C      -0.144446538     -0.013201645     -0.488023958
N       0.130957733     -0.002549776      1.714732823
H       0.516765706     -0.650737520     -0.377094487
H       0.275909048     -0.852128600      2.550014261
H      -0.622903897      0.478660790      1.447884383
H      -0.269584789      1.216998900     -0.364918303
           6
  t=       100.00000    1    8
C      -0.143659070     -0.015003548     -0.496746611
N       0.133580398     -0.003014282      1.727891796
H       0.525602049     -0.659874926     -0.380187516
H       0.256670518     -0.879364245      2.516008633
H      -0.609952542      0.520918597      1.440284471
H      -0.317951167      1.239024010     -0.399196997
