           6
  t=         0.00000    9    3
C      -0.003023322      0.005212650      0.027081538
N      -0.000567050     -0.022500419      1.301651164
H       0.831599156      0.052528734     -0.393686974
H       0.902305926      0.069135341      1.952624754
H      -0.790611608      0.158408955      1.845502904
H      -0.899416544     -0.029510403     -0.542128818
           6
  t=         0.50000    9    3
C      -0.002815476      0.005925570      0.022762265
N      -0.003865032     -0.023253567      1.307422877
H       0.848087569      0.049189929     -0.417508177
H       0.910832621      0.076539499      1.952831549
H      -0.771626986      0.156228190      1.853298903
H      -0.900067389     -0.029419491     -0.555075422
           6
  t=         1.00000    9    3
C      -0.003486572      0.006586245      0.016008601
N      -0.006434322     -0.023997275      1.316235733
H       0.877961451      0.046089448     -0.449328062
H       0.912293690      0.083446381      1.945592030
H      -0.757745397      0.153841917      1.863019471
H      -0.901594323     -0.028373198     -0.567770416
           6
  t=         1.50000    9    3
C      -0.004615827      0.007202218      0.006808415
N      -0.008094262     -0.024749964      1.327763905
H       0.915708440      0.042972765     -0.485888142
H       0.906585971      0.089775358      1.931065401
H      -0.750923242      0.151664496      1.875639475
H      -0.903945744     -0.026284606     -0.579934780
           6
  t=         2.00000    9    3
C      -0.005786126      0.007771380     -0.004766664
N      -0.008753872     -0.025519510      1.341641822
H       0.956023423      0.039595834     -0.524060426
H       0.894055956      0.095584087      1.909787379
H      -0.752313432      0.149857201      1.891607323
H      -0.907240768     -0.022994066     -0.591454122
           6
  t=         2.50000    9    3
C      -0.006663443      0.008275840     -0.018492164
N      -0.008453827     -0.026305604      1.357428422
H       0.994631397      0.035703304     -0.561544356
H       0.875715011      0.101220646      1.883087180
H      -0.761915320      0.148246541      1.910932279
H      -0.911628409     -0.018212049     -0.602511980
           6
  t=         3.00000    8    2
C      -0.007035456      0.008681313     -0.033916256
N      -0.007464188     -0.027103478      1.374523848
H       1.028677038      0.030940561     -0.597147135
H       0.854090028      0.107562661      1.853482023
H      -0.778268502      0.146187337      1.933322511
H      -0.917016430     -0.011474462     -0.613571733
           6
  t=         3.50000    8    2
C      -0.007100541      0.009063432     -0.050113152
N      -0.006088884     -0.027958295      1.392514253
H       1.060648170      0.026079079     -0.634297298
H       0.832410843      0.113971677      1.822948766
H      -0.800091099      0.144701243      1.958533654
H      -0.923819385     -0.004208974     -0.628210413
           6
  t=         4.00000    8    2
C      -0.006884123      0.009412923     -0.067244388
N      -0.004837930     -0.028919492      1.410819150
H       1.086422970      0.023043557     -0.667770950
H       0.816354429      0.119299709      1.796246725
H      -0.823654024      0.145573328      1.983166895
H      -0.929932528      0.001819907     -0.643023567
           6
  t=         4.50000    5    2
C      -0.006163704      0.009648352     -0.085643255
N      -0.004333940     -0.030025009      1.429400640
H       1.103757519      0.021126168     -0.695860896
H       0.811220711      0.125992176      1.775993221
H      -0.846244346      0.147198348      2.005975929
H      -0.935123170      0.007976637     -0.656594344
           6
  t=         5.00000    5    2
C      -0.005502469      0.009809761     -0.104318519
N      -0.004686962     -0.031300066      1.447765468
H       1.116813320      0.019424389     -0.721345288
H       0.820415176      0.135463484      1.763696179
H      -0.867586223      0.148585591      2.026047701
H      -0.938999378      0.014613682     -0.671688485
           6
  t=         5.50000    5    2
C      -0.004261951      0.009765363     -0.123956917
N      -0.006325264     -0.032769000      1.466078289
H       1.120383389      0.018609084     -0.740735269
H       0.844389472      0.148431601      1.759458652
H      -0.884276560      0.149694514      2.042611032
H      -0.941860509      0.022290062     -0.685237653
           6
  t=         6.00000    5    2
C      -0.002449681      0.009466102     -0.144392098
N      -0.009039107     -0.034397979      1.484325961
H       1.114472261      0.018770055     -0.753975829
H       0.879437487      0.164653703      1.761816544
H      -0.895384220      0.150463506      2.055317535
H      -0.943760646      0.031334457     -0.697282451
           6
  t=         6.50000    5    2
C      -0.000091468      0.008852077     -0.165460321
N      -0.012428154     -0.036127123      1.502531797
H       1.099397888      0.020089695     -0.761177295
H       0.919820083      0.183320793      1.768785780
H      -0.900590367      0.151027720      2.064107943
H      -0.944852569      0.042119538     -0.707942800
           6
  t=         7.00000    5    2
C       0.002764684      0.007848170     -0.186998030
N      -0.016060143     -0.037900186      1.520705472
H       1.075859507      0.022855448     -0.762632972
H       0.959900878      0.203500255      1.778562328
H      -0.900147515      0.151693649      2.069158890
H      -0.945381041      0.055096900     -0.717379830
           6
  t=         7.50000    8    2
C       0.006036422      0.006363380     -0.208837261
N      -0.019556580     -0.039683056      1.538829356
H       1.045094758      0.027473744     -0.758875143
H       0.995299700      0.224405161      1.789715095
H      -0.894867270      0.152919120      2.070835267
H      -0.945670257      0.070798784     -0.725750042
           6
  t=         8.00000    8    2
C       0.009676424      0.004637917     -0.230922372
N      -0.022695426     -0.041406746      1.556969048
H       1.009640140      0.033108730     -0.749790524
H       1.024434664      0.244556526      1.799327435
H      -0.887106966      0.154486582      2.068989184
H      -0.946839188      0.087938918     -0.731676146
           6
  t=         8.50000    8    2
C       0.013387347      0.002236441     -0.252949186
N      -0.025151989     -0.043124881      1.574964361
H       0.971900026      0.041707975     -0.737591996
H       1.044337302      0.264312331      1.808236335
H      -0.877706414      0.157727302      2.064990405
H      -0.948454861      0.108809079     -0.736548085
           6
  t=         9.00000    8    2
C       0.016882263     -0.000884220     -0.274801840
N      -0.026756805     -0.044816515      1.592767989
H       0.935791998      0.053710637     -0.723778425
H       1.054417402      0.283081650      1.815724701
H      -0.868801364      0.162967818      2.059854425
H      -0.950647091      0.133457522     -0.739887713
           6
  t=         9.50000    8    2
C       0.019770803     -0.004723949     -0.296400400
N      -0.027378576     -0.046457757      1.610346548
H       0.906217645      0.069450610     -0.710240277
H       1.054594403      0.300284889      1.821430673
H      -0.862521162      0.170422828      2.054795064
H      -0.953283801      0.161581886     -0.741144395
           6
  t=        10.00000    8    2
C       0.021585737     -0.009289726     -0.317624482
N      -0.026908052     -0.048041075      1.627673898
H       0.888625274      0.089455467     -0.699205935
H       1.044947428      0.315483118      1.825285565
H      -0.860664107      0.180355255      2.050810402
H      -0.956048862      0.192809077     -0.740089348
           6
  t=        10.50000    8    2
C       0.021928378     -0.014607116     -0.338356311
N      -0.025294132     -0.049568399      1.644742013
H       0.887428427      0.114476114     -0.692488874
H       1.025773737      0.328402910      1.827396677
H      -0.864310436      0.192965388      2.048411300
H      -0.958535744      0.226792533     -0.736818086
           6
  t=        11.00000    5    2
C       0.020657534     -0.020684086     -0.358561858
N      -0.022584988     -0.051040988      1.661573459
H       0.903931875      0.145097764     -0.690617700
H       0.997761550      0.338956098      1.827977952
H      -0.873511488      0.208213028      2.047518572
H      -0.960335648      0.263187767     -0.731655456
           6
  t=        11.50000    5    2
C       0.018141351     -0.027341228     -0.378465879
N      -0.018972239     -0.052446045      1.678331713
H       0.935610288      0.180300833     -0.692605311
H       0.961911916      0.347109457      1.827020005
H      -0.887259725      0.225575092      2.047528418
H      -0.962652837      0.301256683     -0.724570647
           6
  t=        12.00000    9    3
C       0.014624089     -0.034551111     -0.398024155
N      -0.014715552     -0.053804374      1.694960450
H       0.976932771      0.219970137     -0.696930943
H       0.920691668      0.353598142      1.825192460
H      -0.903803751      0.244506345      2.047540375
H      -0.963475120      0.340886981     -0.716597507
           6
  t=        12.50000    9    3
C       0.012720095     -0.037248490     -0.406013195
N      -0.012602636     -0.054551295      1.701943155
H       0.998406277      0.235585447     -0.699507323
H       0.900811148      0.356384573      1.823860988
H      -0.911784128      0.253817707      2.045951343
H      -0.963774638      0.355668916     -0.712996478
           6
  t=        13.00000    9    3
C       0.010502779     -0.038933282     -0.413279424
N      -0.010303437     -0.055590163      1.708490841
H       1.023066110      0.246356921     -0.701840193
H       0.879983475      0.360016548      1.821967538
H      -0.920057303      0.264351319      2.041527481
H      -0.964878122      0.365226598     -0.708804229
           6
  t=        13.50000    9    3
C       0.008179684     -0.039578599     -0.419841093
N      -0.008056637     -0.056965696      1.714586690
H       1.048545958      0.251818991     -0.703456881
H       0.860410704      0.365572914      1.819818771
H      -0.927617955      0.275715612      2.034125115
H      -0.966781510      0.369639519     -0.704205442
           6
  t=        14.00000    9    3
C       0.005934778     -0.039176907     -0.425702313
N      -0.006089739     -0.058724498      1.720210573
H       1.072785873      0.251641932     -0.704060276
H       0.844261708      0.374171817      1.817717852
H      -0.933587329      0.287521092      2.023712615
H      -0.969501940      0.369066553     -0.699440115
           6
  t=        14.50000    9    3
C       0.003922026     -0.037741956     -0.430854665
N      -0.004578573     -0.060900736      1.725342215
H       1.094105631      0.245664977     -0.703520865
H       0.833200046      0.386737101      1.815910134
H      -0.937298086      0.299415066      2.010379319
H      -0.973080281      0.363735780     -0.694791014
           6
  t=        15.00000    9    3
C       0.002265110     -0.035307676     -0.435280748
N      -0.003610326     -0.063497827      1.729964885
H       1.111196544      0.233895583     -0.701850834
H       0.827924668      0.403721817      1.814542037
H      -0.938344625      0.311104662      1.994329282
H      -0.977573666      0.353931014     -0.690571130
           6
  t=        15.50000    9    3
C       0.001058398     -0.031925905     -0.438957810
N      -0.003167048     -0.066475015      1.734067087
H       1.123088209      0.216495194     -0.699177187
H       0.827962327      0.424913454      1.813656891
H      -0.936602335      0.322367888      1.975865944
H      -0.983036060      0.339976290     -0.687111412
           6
  t=        16.00000    9    3
C       0.000366615     -0.027664161     -0.441860626
N      -0.003138880     -0.069747217      1.737641473
H       1.129121172      0.193764496     -0.695721507
H       0.831847259      0.449432726      1.813230640
H      -0.932223374      0.333056209      1.955373430
H      -0.989487176      0.322220486     -0.684748599
           6
  t=        16.50000    9    3
C       0.000222236     -0.022604005     -0.443963308
N      -0.003359098     -0.073197589      1.740682064
H       1.128940567      0.166131259     -0.691787191
H       0.837579649      0.475920597      1.813225305
H      -0.925610155      0.343087454      1.933296889
H      -0.996873142      0.301024703     -0.683811636
           6
  t=        17.00000    9    3
C       0.000620828     -0.016840164     -0.445240277
N      -0.003643141     -0.076695329      1.743181605
H       1.122516638      0.134139243     -0.687752842
H       0.843120761      0.502807056      1.813633696
H      -0.917371072      0.352431059      1.910123902
H      -1.005028610      0.276756240     -0.684606066
           6
  t=        17.50000    9    3
C       0.001515390     -0.010479808     -0.445666658
N      -0.003818296     -0.080110513      1.745129718
H       1.110188612      0.098430919     -0.684068056
H       0.846741122      0.528546896      1.814503469
H      -0.908259522      0.361085805      1.886367449
H      -1.013650053      0.249789888     -0.687394929
           6
  t=        18.00000    9    3
C       0.002811551     -0.003640904     -0.445218302
N      -0.003740935     -0.083322545      1.746511416
H       1.092719856      0.059714241     -0.681247233
H       0.847180995      0.551772300      1.815943543
H      -0.899097639      0.369051289      1.862551126
H      -1.022290935      0.220514943     -0.692375634
           6
  t=        18.50000    9    3
C       0.004366358      0.003551451     -0.443871735
N      -0.003304621     -0.086223503      1.747305405
H       1.071338419      0.018705989     -0.679856806
H       0.843674101      0.571372552      1.818120335
H      -0.890689820      0.376297868      1.839197528
H      -1.030385372      0.189344976     -0.699654402
           6
  t=        19.00000    9    3
C       0.005994312      0.010970605     -0.441604464
N      -0.002443382     -0.088719165      1.747482160
H       1.047717184     -0.023944673     -0.680490461
H       0.835900188      0.586532294      1.821248431
H      -0.883732083      0.382740860      1.816819786
H      -1.037297925      0.156729730     -0.709222844
           6
  t=        19.50000    9    3
C       0.007484558      0.018493047     -0.438396705
N      -0.001132773     -0.090731068      1.747002313
H       1.023841274     -0.067725069     -0.683725259
H       0.823921679      0.596761915      1.825578552
H      -0.878736417      0.388230901      1.795917351
H      -1.042393164      0.123175950     -0.720942638
           6
  t=        20.00000    9    3
C       0.008631249      0.025997363     -0.434235766
N       0.000610107     -0.092200651      1.745815929
H       1.001725795     -0.112272239     -0.690046890
H       0.808130277      0.601934683      1.831382593
H      -0.875980158      0.392564031      1.776973190
H      -1.045112006      0.089283336     -0.734540274
           6
  t=        20.50000    9    3
C       0.009272968      0.033354112     -0.429124204
N       0.002727463     -0.093096011      1.743863226
H       0.983025412     -0.157286860     -0.699736343
H       0.789221954      0.602337588      1.838935666
H      -0.875495111      0.395513204      1.760447055
H      -1.045048321      0.055790603     -0.749608557
           6
  t=        21.00000    9    3
C       0.009328611      0.040411694     -0.423089850
N       0.005122514     -0.093419869      1.741077300
H       0.968673582     -0.202363374     -0.712733713
H       0.768197711      0.598719012      1.848490074
H      -0.877092735      0.396865555      1.746751728
H      -1.042014649      0.023599531     -0.765611487
           6
  t=        21.50000    9    3
C       0.008813279      0.046991400     -0.416193058
N       0.007662983     -0.093215486      1.737390299
H       0.958733341     -0.246841224     -0.728541296
H       0.746380732      0.592301669      1.860244783
H      -0.880425421      0.396446757      1.736205646
H      -1.036086789     -0.006269862     -0.781902812
           6
  t=        22.00000    9    3
C       0.007826661      0.052902980     -0.408524607
N       0.010188742     -0.092565847      1.732741639
H       0.952522816     -0.289795295     -0.746243635
H       0.725397459      0.584710469      1.874329884
H      -0.885064289      0.394115792      1.728982116
H      -1.027600237     -0.032808267     -0.797778707
           6
  t=        22.50000    9    3
C       0.006521355      0.057970159     -0.400193595
N       0.012527170     -0.091581724      1.727084655
H       0.948924255     -0.330159422     -0.764656282
H       0.707044955      0.577782693      1.890820295
H      -0.890568697      0.389747417      1.725090196
H      -1.017093483     -0.055155961     -0.812560194
           6
  t=        23.00000    9    3
C       0.005067018      0.062047931     -0.391311843
N       0.014518407     -0.090378790      1.720389904
H       0.946718303     -0.366877107     -0.782519152
H       0.692997322      0.573257848      1.909747851
H      -0.896533352      0.383230904      1.724395938
H      -1.005225460     -0.072664410     -0.825664751
           6
  t=        23.50000    9    3
C       0.003623454      0.065026812     -0.381982037
N       0.016046504     -0.089048688      1.712648904
H       0.944827913     -0.399008222     -0.798646457
H       0.684408827      0.572393379      1.931054252
H      -0.902617179      0.374489098      1.726658207
H      -0.992706236     -0.084877130     -0.836638181
           6
  t=        24.00000    9    3
C       0.002328113      0.066829359     -0.372292501
N       0.017064689     -0.087634585      1.703881218
H       0.942427985     -0.425777543     -0.812004706
H       0.681581963      0.575641010      1.954475050
H      -0.908561359      0.363501177      1.731559010
H      -0.980258718     -0.091478361     -0.845151719
           6
  t=        24.50000    9    3
C       0.001299360      0.067402815     -0.362319901
N       0.017600871     -0.086124101      1.694142954
H       0.938930382     -0.446565121     -0.821727982
H       0.683887260      0.582563205      1.979419776
H      -0.914200916      0.350315143      1.738728169
H      -0.968627408     -0.092242352     -0.850977347
           6
  t=        25.00000    9    3
C       0.000667232      0.066704330     -0.352148620
N       0.017735707     -0.084464845      1.683537474
H       0.933808626     -0.460785272     -0.827055712
H       0.689999796      0.592066036      2.004910292
H      -0.919471135      0.335038159      1.747763628
H      -0.958694613     -0.086985767     -0.853926883
           6
  t=        25.50000    9    3
C       0.001143416      0.064518997     -0.342225925
N       0.017453639     -0.082631714      1.672404976
H       0.923868317     -0.465756972     -0.826107199
H       0.698696850      0.603300777      2.029018904
H      -0.924553734      0.317628483      1.758354402
H      -0.954119274     -0.075289076     -0.853043605
           6
  t=        26.00000    9    3
C       0.002069739      0.060680136     -0.331203518
N       0.016982859     -0.080597662      1.660409305
H       0.913056361     -0.462552823     -0.822899197
H       0.707838150      0.616026448      2.049577963
H      -0.928920811      0.299161155      1.769251949
H      -0.952569758     -0.055304921     -0.852277909
           6
  t=        26.50000    9    3
C       0.003330934      0.055263135     -0.319266817
N       0.016467342     -0.078326664      1.647739418
H       0.902086838     -0.451613584     -0.817063589
H       0.715845396      0.628954626      2.065716563
H      -0.932659081      0.279979135      1.780037308
H      -0.953723102     -0.027045224     -0.851125717
           6
  t=        27.00000    9    3
C       0.004764819      0.048396095     -0.306679688
N       0.016033641     -0.075810965      1.634602438
H       0.891894018     -0.433647585     -0.808154432
H       0.721565003      0.641042475      2.076791732
H      -0.935992273      0.260445755      1.790281349
H      -0.956963557      0.009244797     -0.848696910
           6
  t=        27.50000    9    3
C       0.006168702      0.040358090     -0.293839692
N       0.015777913     -0.073076718      1.621272239
H       0.883681553     -0.409912368     -0.795391688
H       0.724631914      0.651330496      2.082232078
H      -0.939456337      0.240832216      1.799181025
H      -0.961516386      0.052551494     -0.843468688
           6
  t=        28.00000    8    2
C       0.007414759      0.032051367     -0.281395089
N       0.015730766     -0.069966903      1.608156861
H       0.877659001     -0.384290638     -0.777348211
H       0.726092927      0.656849428      2.081499449
H      -0.944388796      0.219625528      1.805357425
H      -0.966203740      0.098315214     -0.832901866
           6
  t=        28.50000    8    2
C       0.008601182      0.022508198     -0.267566947
N       0.015926195     -0.065844663      1.593443895
H       0.872563537     -0.354986634     -0.753616849
H       0.724324407      0.656994663      2.074879800
H      -0.950727711      0.193048580      1.811392600
H      -0.969842545      0.151795750     -0.816270780
           6
  t=        29.00000    8    2
C       0.009503762      0.013740606     -0.253920179
N       0.016451920     -0.061205062      1.579090981
H       0.868740060     -0.330109686     -0.728130364
H       0.719242517      0.650731755      2.061749550
H      -0.958863819      0.163175951      1.815314520
H      -0.970852342      0.202984128     -0.795614072
           6
  t=        29.50000    5    2
C       0.009777308      0.004457325     -0.239311529
N       0.017186241     -0.056042163      1.564174950
H       0.869274868     -0.304899917     -0.704240831
H       0.708945942      0.641031667      2.043542874
H      -0.965554093      0.131123020      1.819972236
H      -0.967860106      0.258326487     -0.772648590
           6
  t=        30.00000    5    2
C       0.009199734     -0.005113552     -0.224064428
N       0.018065097     -0.050364233      1.548904368
H       0.876450528     -0.280089743     -0.680042435
H       0.695545475      0.627728301      2.019246116
H      -0.971500033      0.096216886      1.822982843
H      -0.961023220      0.316793245     -0.744930443
           6
  t=        30.50000    5    2
C       0.007702677     -0.015054609     -0.207979841
N       0.018914737     -0.044411958      1.533238420
H       0.890273452     -0.255230096     -0.658832506
H       0.678584241      0.613418562      1.990913784
H      -0.974266918      0.059614634      1.826092592
H      -0.949097819      0.378508876     -0.714765859
           6
  t=        31.00000    5    2
C       0.005321372     -0.025184898     -0.191073032
N       0.019576261     -0.038345737      1.517199930
H       0.910131060     -0.230789332     -0.640995563
H       0.659380084      0.599722560      1.959425127
H      -0.973113400      0.021330725      1.829048081
H      -0.931742251      0.442381229     -0.682531520
           6
  t=        31.50000    5    2
C       0.002197834     -0.035322948     -0.173323005
N       0.019852101     -0.032345417      1.500785118
H       0.934553652     -0.207172847     -0.626675988
H       0.639666888      0.588526695      1.925764953
H      -0.967258003     -0.018719432      1.831456725
H      -0.908948035      0.507352047     -0.648872764
           6
  t=        32.00000    5    2
C      -0.001457452     -0.045409359     -0.153952976
N       0.019394040     -0.026319259      1.484206319
H       0.963484479     -0.184658814     -0.618802583
H       0.620540395      0.578862120      1.887825404
H      -0.953138449     -0.061951553      1.829932022
H      -0.882984404      0.574102124     -0.617565698
           6
  t=        32.50000    5    2
C      -0.005411252     -0.054989192     -0.134171167
N       0.018134410     -0.021050244      1.467204189
H       0.992158519     -0.164058158     -0.612671679
H       0.605909151      0.578291646      1.851425965
H      -0.934160648     -0.105912992      1.828621674
H      -0.851425856      0.638889062     -0.585291702
           6
  t=        33.00000    5    2
C      -0.009406190     -0.063848785     -0.114067327
N       0.015935961     -0.016766009      1.449656830
H       1.018040673     -0.145983094     -0.607448618
H       0.597863002      0.589287707      1.818113457
H      -0.910920416     -0.150592627      1.828085360
H      -0.814388823      0.700460374     -0.552229569
           6
  t=        33.50000    5    2
C      -0.013217889     -0.071764092     -0.093685859
N       0.012802730     -0.013570260      1.431492230
H       1.039179382     -0.131158430     -0.602529144
H       0.596819045      0.612585153      1.788407677
H      -0.884267632     -0.196007344      1.829008546
H      -0.772216711      0.757596119     -0.518659595
           6
  t=        34.00000    5    2
C      -0.016668427     -0.078523470     -0.073048069
N       0.008899830     -0.011397643      1.412699709
H       1.054205219     -0.120311963     -0.597492349
H       0.601222108      0.646747222      1.761782184
H      -0.855232701     -0.242288558      1.832191881
H      -0.725367108      0.809164269     -0.484874811
           6
  t=        34.50000    5    2
C      -0.019638852     -0.083951584     -0.052175966
N       0.004500300     -0.010047119      1.393313658
H       1.062290783     -0.114122154     -0.592065323
H       0.608108879      0.688792979      1.737141193
H      -0.824806617     -0.289754989      1.838476108
H      -0.674268389      0.854261900     -0.451108833
           6
  t=        35.00000    5    2
C      -0.022069751     -0.087907968     -0.031091851
N      -0.000113328     -0.009278485      1.373401617
H       1.063162188     -0.113190045     -0.586158120
H       0.614113165      0.735249307      1.713347505
H      -0.793558976     -0.338729075      1.848539120
H      -0.619343849      0.892275660     -0.417665251
           6
  t=        35.50000    5    2
C      -0.023973963     -0.090255578     -0.009791088
N      -0.004723239     -0.008919598      1.353063808
H       1.057226713     -0.117939399     -0.579954397
H       0.616267830      0.782882098      1.689560608
H      -0.761332013     -0.389092905      1.862648785
H      -0.561064970      0.922721945     -0.385235456
           6
  t=        36.00000    5    2
C      -0.025794872     -0.090786712      0.012436120
N      -0.009196185     -0.009211596      1.332147140
H       1.048035941     -0.127168778     -0.576077997
H       0.611593076      0.829316499      1.665701423
H      -0.726162326     -0.438358934      1.880949777
H      -0.498538993      0.945163980     -0.357585518
           6
  t=        36.50000    5    2
C      -0.026827646     -0.089559805      0.034090194
N      -0.013578199     -0.009684620      1.311606173
H       1.031338824     -0.143124635     -0.571145841
H       0.600463693      0.872458522      1.640904897
H      -0.688763216     -0.488405038      1.902507444
H      -0.434929120      0.959987511     -0.331706575
           6
  t=        37.00000    5    2
C      -0.026892833     -0.086514588      0.054743382
N      -0.017941630     -0.010370607      1.291970740
H       1.007476564     -0.165734922     -0.564756792
H       0.583335578      0.910039287      1.615173540
H      -0.648392751     -0.537306568      1.925821542
H      -0.372905797      0.967190832     -0.308770563
           6
  t=        37.50000    5    2
C      -0.025865431     -0.081785381      0.073756333
N      -0.022321782     -0.011304055      1.273928349
H       0.977392789     -0.193714854     -0.555962643
H       0.562020947      0.939763437      1.588872960
H      -0.605335833     -0.582479228      1.949050833
H      -0.315937840      0.967278862     -0.290189879
           6
  t=        38.00000    5    2
C      -0.023785079     -0.075737227      0.090278154
N      -0.026700254     -0.012448381      1.258303706
H       0.942566575     -0.225218284     -0.543928376
H       0.538332459      0.960086586      1.562589820
H      -0.560233113     -0.621920646      1.970501299
H      -0.266460039      0.961785695     -0.277019509
           6
  t=        38.50000    5    2
C      -0.020791364     -0.068763264      0.103454145
N      -0.031068060     -0.013742606      1.245924184
H       0.904636704     -0.259055958     -0.528698100
H       0.513215044      0.970537285      1.536967768
H      -0.513343113     -0.654622731      1.988890065
H      -0.225260391      0.952819179     -0.269895171
           6
  t=        39.00000    5    2
C      -0.017059849     -0.061204054      0.112572431
N      -0.035434258     -0.015135488      1.237500383
H       0.865381937     -0.294616912     -0.511050508
H       0.487197742      0.971292901      1.512748675
H      -0.464827868     -0.680137871      2.003323215
H      -0.192268385      0.942486417     -0.269283265
           6
  t=        39.50000    5    2
C      -0.012790327     -0.053333773      0.117158091
N      -0.039813281     -0.016595518      1.233535988
H       0.826823091     -0.331623024     -0.492251354
H       0.460788055      0.962928651      1.490785474
H      -0.415024966     -0.698325052      2.013265718
H      -0.167095360      0.932619840     -0.275579502
           6
  t=        40.00000    5    2
C      -0.008204258     -0.045347305      0.117046247
N      -0.044219266     -0.018118413      1.234256296
H       0.791243751     -0.370063589     -0.473878721
H       0.434660457      0.946366646      1.471988642
H      -0.364518916     -0.709276770      2.018535445
H      -0.149281518      0.924640055     -0.289101336
           6
  t=        40.50000    5    2
C      -0.003534418     -0.037351878      0.112408455
N      -0.048667497     -0.019730690      1.239569353
H       0.761030970     -0.410194358     -0.457621131
H       0.409746171      0.922943519      1.457259700
H      -0.314100790     -0.713347441      2.019324339
H      -0.138370080      0.919465781     -0.310018774
           6
  t=        41.00000    5    2
C       0.001000434     -0.029372172      0.103705511
N      -0.053179540     -0.021488604      1.249076016
H       0.738314365     -0.452456555     -0.444960302
H       0.387294099      0.894543493      1.447442063
H      -0.264694314     -0.711245805      2.016258364
H      -0.133911487      0.917438236     -0.338260251
           6
  t=        41.50000    5    2
C       0.005233803     -0.021375247      0.091570472
N      -0.057790081     -0.023469934      1.262130475
H       0.724479521     -0.497230295     -0.436767295
H       0.368913825      0.863709568      1.443287024
H      -0.217279373     -0.704171066      2.010493300
H      -0.135456639      0.918282240     -0.373426359
           6
  t=        42.00000    5    2
C       0.009086012     -0.013313137      0.076663693
N      -0.062553057     -0.025750080      1.277933234
H       0.719776263     -0.544479607     -0.433001644
H       0.356532381      0.833582380      1.445420890
H      -0.172793658     -0.693975546      2.003817497
H      -0.142546599      0.921150013     -0.414726484
           6
  t=        42.50000    5    2
C       0.012572793     -0.005169159      0.059569899
N      -0.067542610     -0.028359592      1.295626152
H       0.723272154     -0.593463365     -0.432744191
H       0.352203219      0.807492804      1.454279334
H      -0.131997945     -0.683254874      1.998673074
H      -0.154698746      0.924790996     -0.460996498
           6
  t=        43.00000    5    2
C       0.015772101      0.002998060      0.040802135
N      -0.072843235     -0.031223643      1.314357526
H       0.733298058     -0.642611325     -0.434641080
H       0.357805330      0.788048431      1.470012522
H      -0.095354742     -0.675191518      1.997961748
H      -0.171414645      0.927868202     -0.510916998
           6
  t=        43.50000    5    2
C       0.018826566      0.011230445      0.020672690
N      -0.078518854     -0.034349454      1.333533174
H       0.747126196     -0.690706279     -0.437553295
H       0.373546461      0.777409170      1.492618600
H      -0.062345810     -0.671986635      2.003853319
H      -0.191502601      0.928806855     -0.563257556
           6
  t=        44.00000    5    2
C       0.021830368      0.019416701     -0.000503633
N      -0.084578432     -0.037458009      1.352605426
H       0.762933164     -0.735763598     -0.440225250
H       0.399372628      0.774684786      1.521299282
H      -0.032667884     -0.676077962      2.018150076
H      -0.214385315      0.926398684     -0.616416563
           6
  t=        44.50000    5    2
C       0.024865023      0.027448674     -0.022452344
N      -0.090966472     -0.040278411      1.371251699
H       0.779144049     -0.776026063     -0.441788292
H       0.434015679      0.777360296      1.554823514
H      -0.005835531     -0.688257838      2.040957495
H      -0.239446860      0.919717634     -0.668923285
           6
  t=        45.00000    5    2
C       0.027990581      0.035217856     -0.044916219
N      -0.097572020     -0.042624619      1.389348609
H       0.794516041     -0.810041360     -0.441758136
H       0.475436787      0.782222100      1.591755990
H       0.018541757     -0.707483584      2.070610765
H      -0.266052742      0.908189383     -0.719510290
           6
  t=        45.50000    5    2
C       0.031244892      0.042611458     -0.067641226
N      -0.104255319     -0.044416520      1.406895131
H       0.808127206     -0.836676078     -0.439971349
H       0.521367782      0.786258273      1.630680468
H       0.040625695     -0.731440159      2.104317515
H      -0.293567070      0.891607250     -0.767142863
           6
  t=        46.00000    5    2
C       0.034647395      0.049505965     -0.090366815
N      -0.110878889     -0.045648556      1.423925584
H       0.819322196     -0.855088681     -0.436515392
H       0.569698844      0.787152406      1.670352295
H       0.060419544     -0.757415965      2.139035443
H      -0.321369593      0.870127949     -0.811025777
           6
  t=        46.50000    5    2
C       0.038205164      0.055763872     -0.112823272
N      -0.117328256     -0.046346136      1.440454085
H       0.827645783     -0.864694163     -0.431662736
H       0.618641753      0.783388559      1.709758008
H       0.077910367     -0.782978250      2.172079384
H      -0.348878692      0.844239942     -0.850595488
           6
  t=        47.00000    5    2
C       0.041916698      0.061240928     -0.134740341
N      -0.123517858     -0.046539789      1.456457394
H       0.832792469     -0.865136881     -0.425797730
H       0.666754788      0.774152197      1.748117693
H       0.093153396     -0.806263141      2.201359875
H      -0.375573348      0.814680027     -0.885493284
           6
  t=        47.50000    5    2
C       0.045772342      0.065799419     -0.155863372
N      -0.129388269     -0.046257530      1.471880118
H       0.834589803     -0.856271834     -0.419339571
H       0.712925841      0.759159806      1.784870429
H       0.106284107     -0.825987333      2.225400910
H      -0.401015202      0.782332381     -0.915525438
           6
  t=        48.00000    5    2
C       0.049754607      0.069320157     -0.175968592
N      -0.134901202     -0.045523841      1.486649938
H       0.833021424     -0.838164882     -0.412691475
H       0.756338641      0.738478960      1.819641076
H       0.117491425     -0.841352903      2.243264893
H      -0.424884266      0.748156693     -0.940635624
           6
  t=        48.50000    5    2
C       0.053837007      0.071713953     -0.194868841
N      -0.140035606     -0.044359887      1.500692402
H       0.828295213     -0.811141779     -0.406238059
H       0.796428256      0.712383109      1.852194575
H       0.126989241     -0.851940552      2.254453130
H      -0.447014523      0.713141980     -0.960899469
           6
  t=        49.00000    5    2
C       0.057977619      0.072935142     -0.212408575
N      -0.144784717     -0.042783451      1.513938351
H       0.820954872     -0.775897793     -0.400375662
H       0.832830685      0.681257957      1.882394250
H       0.135004206     -0.857628839      2.258815781
H      -0.467407120      0.678267199     -0.976525242
           6
  t=        49.50000    5    2
C       0.062105920      0.072996962     -0.228453962
N      -0.149152777     -0.040807639      1.526324825
H       0.812035218     -0.733651773     -0.395550809
H       0.865330310      0.645548921      1.910169219
H       0.141773126     -0.858550328      2.256484945
H      -0.486219438      0.644462796     -0.987846384
           6
  t=        50.00000    5    2
C       0.066103524      0.071987340     -0.242882798
N      -0.153151255     -0.038438603      1.537792317
H       0.803257472     -0.686309736     -0.392292210
H       0.893809965      0.605734816      1.935486898
H       0.147544246     -0.855082692      2.247831343
H      -0.503734806      0.612572203     -0.995300532
           6
  t=        50.50000    5    2
C       0.069783669      0.070077199     -0.255574771
N      -0.156795307     -0.035671499      1.548280394
H       0.797225037     -0.636562075     -0.391240474
H       0.918206149      0.562317358      1.958332072
H       0.152580579     -0.847867126      2.233437561
H      -0.520321808      0.583322826     -0.999407342
           6
  t=        51.00000    5    2
C       0.072882631      0.067507069     -0.266402481
N      -0.160100376     -0.032485478      1.557722306
H       0.797465286     -0.587739843     -0.393160507
H       0.938467285      0.515818998      1.978689858
H       0.157165658     -0.837842195      2.214077202
H      -0.536385112      0.557308227     -1.000750088
           6
  t=        51.50000    5    2
C       0.075088670      0.064533690     -0.275226715
N      -0.163079992     -0.028839418      1.566039772
H       0.808022804     -0.543204018     -0.398907570
H       0.954523646      0.466787400      1.996537112
H       0.161611893     -0.826275990      2.190692524
H      -0.552312126      0.534981482     -0.999962547
           6
  t=        52.00000    5    2
C       0.076130680      0.061337573     -0.281908913
N      -0.165746641     -0.024671132      1.573142173
H       0.832341430     -0.505246741     -0.409280892
H       0.966279495      0.415800011      2.011846567
H       0.166281033     -0.814769676      2.164361539
H      -0.568411230      0.516645065     -0.997686974
           6
  t=        52.50000    5    2
C       0.075910217      0.057946323     -0.286369750
N      -0.168122795     -0.019902900      1.578941803
H       0.871662820     -0.474076800     -0.424678310
H       0.973658816      0.363458357      2.024598501
H       0.171649398     -0.805216090      2.136245910
H      -0.584839985      0.502390532     -0.994393346
           6
  t=        53.00000    5    2
C       0.074592007      0.054251295     -0.288671326
N      -0.170253306     -0.014453599      1.583391445
H       0.924022168     -0.447858793     -0.444722254
H       0.976644045      0.310400055      2.034760041
H       0.178344171     -0.799699076      2.107440072
H      -0.601581369      0.491995187     -0.990125330
           6
  t=        53.50000    5    2
C       0.072558947      0.050113514     -0.288996534
N      -0.172181650     -0.008265111      1.586510812
H       0.984880140     -0.423955590     -0.468377664
H       0.975185726      0.257424822      2.042224521
H       0.186886276     -0.800244596      2.078635856
H      -0.618522542      0.484895361     -0.984599368
           6
  t=        54.00000    5    2
C       0.070286570      0.045489632     -0.287568469
N      -0.173900646     -0.001351408      1.588402811
H       1.048750063     -0.400396332     -0.494388447
H       0.969093133      0.205789298      2.046770905
H       0.197148165     -0.808450984      2.049713301
H      -0.635620434      0.480172172     -0.977504047
           6
  t=        54.50000    5    2
C       0.068234701      0.040506735     -0.284596825
N      -0.175298260      0.006140304      1.589246857
H       1.110577903     -0.376635968     -0.521561245
H       0.958042840      0.157580125      2.048157412
H       0.207701767     -0.825106799      2.019529333
H      -0.653101191      0.476514628     -0.968643941
           6
  t=        55.00000    5    2
C       0.066731356      0.035419959     -0.280212314
N      -0.176266631      0.014003495      1.588992741
H       1.166239451     -0.352815337     -0.548476965
H       0.942120410      0.113943693      2.046992757
H       0.217489958     -0.849766473      1.987943424
H      -0.671273347      0.472303336     -0.957652302
           6
  t=        55.50000    5    2
C       0.065908601      0.030325232     -0.274608604
N      -0.176721699      0.022049536      1.587696667
H       1.213366631     -0.328872644     -0.573990836
H       0.921437385      0.075565019      2.044042096
H       0.225733909     -0.881080402      1.954181710
H      -0.689841988      0.466920572     -0.944140175
           6
  t=        56.00000    5    2
C       0.065806903      0.025317196     -0.267976683
N      -0.176576108      0.030075013      1.585411356
H       1.250549431     -0.304948860     -0.597087072
H       0.896175963      0.042952379      2.040156210
H       0.231611127     -0.917258014      1.917539640
H      -0.708452370      0.459907869     -0.927728028
           6
  t=        56.50000    5    2
C       0.066405689      0.020473398     -0.260494987
N      -0.175756631      0.037882658      1.582176556
H       1.277048011     -0.281228905     -0.616903011
H       0.866657190      0.016468845      2.036253026
H       0.234378821     -0.956370983      1.877496794
H      -0.726715422      0.450976341     -0.908103699
           6
  t=        57.00000    5    2
C       0.067649360      0.015850877     -0.252324038
N      -0.174216706      0.045293117      1.578014478
H       1.292558176     -0.257877296     -0.632727081
H       0.833419055     -0.003625697      2.033319439
H       0.233429883     -0.996565424      1.833752228
H      -0.744242745      0.439989553     -0.885062012
           6
  t=        57.50000    5    2
C       0.069465719      0.011488831     -0.243604491
N      -0.171944647      0.052148951      1.572927829
H       1.297056269     -0.235024170     -0.643983750
H       0.797294185     -0.017147557      2.032434526
H       0.228301705     -1.036163999      1.786211431
H      -0.760683469      0.426937437     -0.858525920
           6
  t=        58.00000    5    2
C       0.071777014      0.007412547     -0.234457076
N      -0.168968878      0.058315036      1.566898437
H       1.290715885     -0.212770616     -0.650217480
H       0.759471342     -0.023993280      2.034806229
H       0.218671673     -1.073687000      1.734959552
H      -0.775756578      0.411914268     -0.828554033
           6
  t=        58.50000    5    2
C       0.074504316      0.003637168     -0.224983098
N      -0.165358404      0.063677073      1.559886419
H       1.273887547     -0.191199225     -0.651085959
H       0.721497312     -0.024169154      2.041799098
H       0.204354630     -1.107820163      1.680244616
H      -0.789275692      0.395102497     -0.795340907
           6
  t=        59.00000    5    2
C       0.077565654      0.000171236     -0.215263938
N      -0.161213768      0.068138566      1.551832013
H       1.247136342     -0.170385472     -0.646371944
H       0.685148223     -0.017822851      2.054906828
H       0.185306325     -1.137359792      1.622483583
H      -0.801164756      0.376760577     -0.759215063
           6
  t=        59.50000    5    2
C       0.080868008     -0.002978825     -0.205356902
N      -0.156643376      0.071616250      1.542664168
H       1.211340834     -0.150414993     -0.636024861
H       0.652094396     -0.005247307      2.075597101
H       0.161634116     -1.161166756      1.562288581
H      -0.811466207      0.357208384     -0.720637364
           6
  t=        60.00000    5    2
C       0.084292783     -0.005802686     -0.195284920
N      -0.151726965      0.074036783      1.532320482
H       1.167863350     -0.131416715     -0.620242738
H       0.623375461      0.013148376      2.104968127
H       0.133620193     -1.178166753      1.500489352
H      -0.820344232      0.336805716     -0.680197651
           6
  t=        60.50000    5    2
C       0.087673571     -0.008278730     -0.185020452
N      -0.146480765      0.075338636      1.520777466
H       1.118811247     -0.113619976     -0.599602758
H       0.598889316      0.036867414      2.143268878
H       0.101753278     -1.187407142      1.438118766
H      -0.828085866      0.315923555     -0.638602157
           6
  t=        61.00000    5    2
C       0.090765362     -0.010369307     -0.174468317
N      -0.140848232      0.075482646      1.508078518
H       1.067383440     -0.097412006     -0.575232860
H       0.577252647      0.065299672      2.189514293
H       0.066748664     -1.188155599      1.376350820
H      -0.835090401      0.294922800     -0.596648181
           6
  t=        61.50000    5    2
C       0.093213164     -0.012021110     -0.163453872
N      -0.134726576      0.074465696      1.494340655
H       1.018201828     -0.083355495     -0.548983028
H       0.556203876      0.097658526      2.241475581
H       0.029526426     -1.179998886      1.316415403
H      -0.841839580      0.274148116     -0.555192112
           6
  t=        62.00000    5    2
C       0.094548377     -0.013171773     -0.151727507
N      -0.128012366      0.072328871      1.479734429
H       0.977299874     -0.072130810     -0.523456856
H       0.533311858      0.132956745      2.296095753
H      -0.008854299     -1.162916252      1.259517390
H      -0.848852428      0.253932913     -0.515120062
           6
  t=        62.50000    5    2
C       0.094263197     -0.013761391     -0.139005943
N      -0.120637833      0.069155652      1.464452366
H       0.951189764     -0.064401629     -0.501641427
H       0.506567352      0.170070774      2.350085696
H      -0.047281552     -1.137324651      1.206776744
H      -0.856639118      0.234608212     -0.477323727
           6
  t=        63.00000    5    2
C       0.091991208     -0.013744593     -0.125063302
N      -0.112583939      0.065063780      1.448685706
H       0.944681919     -0.060653869     -0.485971347
H       0.474636887      0.207859917      2.400406982
H      -0.084670309     -1.104111759      1.159195633
H      -0.865663314      0.216512100     -0.442678938
           6
  t=        63.50000    5    2
C       0.087706979     -0.013095936     -0.109834508
N      -0.103874546      0.060197877      1.432617598
H       0.958479339     -0.061096670     -0.477259181
H       0.436833902      0.245276142      2.444516849
H      -0.120024716     -1.064682998      1.117644764
H      -0.876302924      0.199994823     -0.412020635
           6
  t=        64.00000    5    2
C       0.081761745     -0.011804908     -0.093450370
N      -0.094561897      0.054727340      1.416429188
H       0.988694492     -0.065672913     -0.474430581
H       0.392963732      0.281429586      2.480414418
H      -0.152490907     -1.021040170      1.082849522
H      -0.888785845      0.185412114     -0.386107057
           6
  t=        64.50000    5    2
C       0.074710234     -0.009864635     -0.076183265
N      -0.084710207      0.048848762      1.400311582
H       1.028819505     -0.074138610     -0.475301062
H       0.343158021      0.315612688      2.506583377
H      -0.181418702     -0.975876260      1.055364926
H      -0.903098855      0.173107124     -0.365573536
           6
  t=        65.00000    5    2
C       0.067092824     -0.007261076     -0.058371581
N      -0.074380466      0.042787588      1.384477840
H       1.072235997     -0.086149481     -0.477583327
H       0.287746264      0.347302174      2.521910043
H      -0.206442631     -0.932624696      1.035549737
H      -0.918905302      0.163392683     -0.350883670
           6
  t=        65.50000    5    2
C       0.059313575     -0.003967030     -0.040380433
N      -0.063619120      0.036791045      1.369169625
H       1.113630570     -0.101325590     -0.479444063
H       0.227172558      0.376157357      2.525626977
H      -0.227558429     -0.895359160      1.023572220
H      -0.935505909      0.156544295     -0.342281998
           6
  t=        66.00000    5    2
C       0.051611764      0.000059357     -0.022610919
N      -0.052454950      0.031103011      1.354651442
H       1.149257814     -0.119300039     -0.479568843
H       0.161951659      0.402031545      2.517367471
H      -0.245100015     -0.868438541      1.019538631
H      -0.951785232      0.152813779     -0.339721757
           6
  t=        66.50000    5    2
C       0.044048834      0.004793808     -0.005107555
N      -0.040845371      0.026021992      1.341182838
H       1.176834432     -0.139992723     -0.477439750
H       0.092270725      0.424642495      2.495712802
H      -0.259144824     -0.855947186      1.021722812
H      -0.966892949      0.152629106     -0.343652226
           6
  t=        67.00000    5    2
C       0.036659846      0.010273489      0.011695999
N      -0.028808256      0.021614008      1.329025081
H       1.194976560     -0.162949692     -0.472581741
H       0.018747879      0.444186321      2.460731102
H      -0.270334250     -0.860058480      1.030667053
H      -0.979591097      0.156153799     -0.353625502
           6
  t=        67.50000    5    2
C       0.029457500      0.016542310      0.027317224
N      -0.016417935      0.017756062      1.318410356
H       1.202977804     -0.187599859     -0.464810849
H      -0.057802316      0.461018723      2.412769410
H      -0.279070272     -0.880441633      1.047645710
H      -0.988704292      0.163316388     -0.368927711
           6
  t=        68.00000    5    2
C       0.022530886      0.023661396      0.041211929
N      -0.003856423      0.014127314      1.309556542
H       1.200727102     -0.212813340     -0.454342464
H      -0.135803689      0.475513290      2.352551872
H      -0.286251560     -0.913900234      1.074634106
H      -0.993330775      0.173147060     -0.388590645
           6
  t=        68.50000    5    2
C       0.016418533      0.031533599      0.052909010
N       0.008494558      0.010401296      1.302567751
H       1.187500182     -0.236206050     -0.441496556
H      -0.212304969      0.487909124      2.282142280
H      -0.294090595     -0.955203463      1.112278504
H      -0.994593470      0.183484580     -0.410841606
           6
  t=        69.00000    5    2
C       0.011257155      0.040101949      0.062154981
N       0.020400283      0.006261900      1.297474070
H       1.163716442     -0.256118857     -0.426736343
H      -0.285164861      0.498519440      2.203792398
H      -0.303659879     -0.999299115      1.160305304
H      -0.992347027      0.192374872     -0.434595354
           6
  t=        69.50000    5    2
C       0.007084911      0.049266143      0.068824327
N       0.031704253      0.001480209      1.294253414
H       1.130070271     -0.271387583     -0.410663877
H      -0.353074997      0.507897439      2.120466550
H      -0.315272862     -1.042068874      1.217352820
H      -0.986560677      0.198357158     -0.459051133
           6
  t=        70.00000    5    2
C       0.003870059      0.058911206      0.072867696
N       0.042323054     -0.004118611      1.292839346
H       1.087530416     -0.281345156     -0.393994328
H      -0.415706117      0.516991375      2.035570270
H      -0.328607132     -1.080471654      1.281649615
H      -0.977317889      0.200573215     -0.483617157
           6
  t=        70.50000    5    2
C       0.001546509      0.068922184      0.074324597
N       0.052221601     -0.010660604      1.293123707
H       1.037456814     -0.285716084     -0.377668751
H      -0.473490738      0.526975591      1.952491698
H      -0.343062897     -1.112403380      1.351381363
H      -0.964871470      0.198589207     -0.507893798
           6
  t=        71.00000    5    2
C       0.000036316      0.079198411      0.073400520
N       0.061372476     -0.018207676      1.294945674
H       0.981808225     -0.284645661     -0.363162753
H      -0.527201744      0.538824146      1.874114861
H      -0.357987713     -1.136437270      1.424899670
H      -0.949750719      0.192208297     -0.531853297
           6
  t=        71.50000    5    2
C      -0.000615952      0.089763091      0.071171853
N       0.069668290     -0.026719069      1.297722753
H       0.923725977     -0.279496255     -0.354893510
H      -0.577604998      0.552118531      1.803449352
H      -0.373095998     -1.150853888      1.501444316
H      -0.933655250      0.180649368     -0.558050830
           6
  t=        72.00000    5    2
C      -0.001045761      0.100468921      0.066949260
N       0.077162331     -0.036227651      1.301825322
H       0.867401630     -0.269801647     -0.350986820
H      -0.624192151      0.568584444      1.739751201
H      -0.387812701     -1.156494867      1.578816885
H      -0.915034017      0.164772713     -0.582356609
           6
  t=        72.50000    5    2
C      -0.001578999      0.111315275      0.061145085
N       0.083804114     -0.046615499      1.307105382
H       0.817409382     -0.257073440     -0.354006910
H      -0.666949082      0.587610650      1.683612319
H      -0.401825609     -1.153098710      1.655992540
H      -0.894205831      0.144808644     -0.604626781
           6
  t=        73.00000    5    2
C      -0.002552339      0.122264184      0.054178533
N       0.089502118     -0.057708611      1.313465428
H       0.778716264     -0.242930644     -0.366680879
H      -0.705223691      0.608242836      1.635245541
H      -0.414808939     -1.140561401      1.731734153
H      -0.871835249      0.121260955     -0.624746615
           6
  t=        73.50000    5    2
C      -0.004260954      0.133271892      0.046438406
N       0.094154168     -0.069359972      1.320847215
H       0.755667343     -0.228711919     -0.390822008
H      -0.737862492      0.629902902      1.594155246
H      -0.426148209     -1.119018130      1.804435108
H      -0.849101083      0.094659889     -0.642620731
           6
  t=        74.00000    5    2
C      -0.006817412      0.144271211      0.038258601
N       0.097695221     -0.081462256      1.329161876
H       0.750222555     -0.214887631     -0.426840923
H      -0.763934196      0.652310235      1.559611590
H      -0.435159458     -1.088763443      1.872602836
H      -0.827334474      0.065359746     -0.658356974
           6
  t=        74.50000    5    2
C      -0.010086417      0.155124356      0.029850167
N       0.100091918     -0.093922717      1.338297824
H       0.761208561     -0.200635007     -0.473321336
H      -0.782739469      0.675314743      1.530839600
H      -0.441213736     -1.050269405      1.934926855
H      -0.807837804      0.033511850     -0.672248680
           6
  t=        75.00000    5    2
C      -0.013756728      0.165643649      0.021298270
N       0.101332218     -0.106646531      1.348133789
H       0.785082325     -0.184199034     -0.527310997
H      -0.793701125      0.698822002      1.507069366
H      -0.443789547     -1.004224713      1.990276120
H      -0.791705299     -0.000938571     -0.684676235
           6
  t=        75.50000    5    2
C      -0.017480237      0.175648469      0.012622417
N       0.101421587     -0.119525648      1.358540077
H       0.817439165     -0.163686017     -0.585240398
H      -0.796301851      0.722753491      1.487571053
H      -0.442531122     -0.951569432      2.037734900
H      -0.779626179     -0.038217280     -0.695993822
           6
  t=        76.00000    5    2
C      -0.020982325      0.185006343      0.003847675
N       0.100386058     -0.132433066      1.369369557
H       0.854190787     -0.137658538     -0.643811333
H      -0.790066982      0.747039981      1.471663481
H      -0.437323810     -0.893523932      2.076685715
H      -0.771733019     -0.078659344     -0.706455184
           6
  t=        76.50000    5    2
C      -0.024110807      0.193652014     -0.004931027
N       0.098278856     -0.145226613      1.380436269
H       0.892078572     -0.105350759     -0.700545535
H      -0.774570755      0.771652819      1.458661349
H      -0.428386648     -0.831597782      2.106966860
H      -0.767525503     -0.122690821     -0.716238069
           6
  t=        77.00000    5    2
C      -0.026823137      0.201624640     -0.013529088
N       0.095168238     -0.157782600      1.391502980
H       0.928756919     -0.066694366     -0.754137412
H      -0.749504612      0.796656376      1.447690167
H      -0.416262121     -0.767527781      2.129248835
H      -0.765879060     -0.170892380     -0.725345918
           6
  t=        77.50000    5    2
C      -0.028944709      0.208802181     -0.022694816
N       0.091049601     -0.169808842      1.402663683
H       0.961911709     -0.021858833     -0.801618770
H      -0.714910596      0.820558241      1.439456622
H      -0.401306064     -0.704015582      2.145004518
H      -0.766096744     -0.221507120     -0.731322481
           6
  t=        78.00000    5    2
C      -0.030509005      0.215026730     -0.032594625
N       0.086123000     -0.181000892      1.413716529
H       0.990110163      0.028970901     -0.841358217
H      -0.670941731      0.842759308      1.434019419
H      -0.385392347     -0.643927598      2.156389804
H      -0.767099859     -0.273234469     -0.733227715
           6
  t=        78.50000    4    1
C      -0.031727626      0.219854464     -0.042708690
N       0.081047053     -0.191188345      1.424079512
H       1.012789496      0.086630839     -0.872434864
H      -0.619687297      0.864802871      1.429109816
H      -0.372995520     -0.589241991      2.166298149
H      -0.768393368     -0.323558740     -0.730710095
           6
  t=        79.00000    4    1
C      -0.032291174      0.223627198     -0.053506550
N       0.075679545     -0.200431095      1.433551601
H       1.029315813      0.149900382     -0.894623194
H      -0.562277983      0.883867192      1.424912386
H      -0.363781379     -0.539883104      2.181661099
H      -0.770254827     -0.371750990     -0.722727349
           6
  t=        79.50000    4    1
C      -0.032429668      0.226349680     -0.065258098
N       0.070083905     -0.208112649      1.441976974
H       1.038512529      0.216703215     -0.907290388
H      -0.496247704      0.898825079      1.424182047
H      -0.360085982     -0.500923165      2.204713370
H      -0.769780198     -0.418157775     -0.709523301
           6
  t=        80.00000    4    1
C      -0.032225897      0.227977667     -0.077938715
N       0.064406493     -0.214168364      1.449200031
H       1.039995457      0.286275576     -0.910252979
H      -0.422015578      0.909278606      1.426994048
H      -0.362909315     -0.472478022      2.237233201
H      -0.766214040     -0.461872954     -0.691266108
           6
  t=        80.50000    4    1
C      -0.031753528      0.228489442     -0.091508389
N       0.058678121     -0.218624273      1.455278686
H       1.033504733      0.357772794     -0.903476153
H      -0.340076007      0.914814746      1.433497923
H      -0.371620080     -0.453447364      2.278163150
H      -0.758984339     -0.502118831     -0.668363722
           6
  t=        81.00000    4    1
C      -0.030986666      0.227992463     -0.105997361
N       0.052833201     -0.221591150      1.460479114
H       1.018990761      0.429672078     -0.887086008
H      -0.252147751      0.914438164      1.443760302
H      -0.383734317     -0.441909540      2.324670561
H      -0.748203707     -0.538039294     -0.641262327
           6
  t=        81.50000    1    1
C      -0.030087404      0.226190221     -0.121118155
N       0.046834741     -0.223005510      1.464926455
H       0.996478402      0.502246463     -0.861481229
H      -0.157485319      0.908296529      1.459304000
H      -0.398236567     -0.436196761      2.371612247
H      -0.733213975     -0.569074426     -0.611104493
           6
  t=        82.00000    1    1
C      -0.028988280      0.223358437     -0.137120944
N       0.040596596     -0.223077118      1.469084931
H       0.966143903      0.574148759     -0.826840896
H      -0.057910084      0.895791256      1.479668077
H      -0.412465909     -0.434819668      2.416486093
H      -0.714637282     -0.595136227     -0.578219417
           6
  t=        82.50000    1    1
C      -0.027886183      0.219306911     -0.153373149
N       0.034192691     -0.221749521      1.472891128
H       0.928436586      0.645130725     -0.784195180
H       0.046884781      0.877535212      1.505303552
H      -0.426213509     -0.436718867      2.455183246
H      -0.692121404     -0.616168446     -0.544569971
           6
  t=        83.00000    1    1
C      -0.026833112      0.214134620     -0.169600882
N       0.027653816     -0.219113985      1.476440075
H       0.884140984      0.714502362     -0.734621372
H       0.155933829      0.853809046      1.535962314
H      -0.438600988     -0.440952044      2.485728207
H      -0.666172480     -0.632614422     -0.511436767
           6
  t=        83.50000    1    1
C      -0.025871442      0.207968688     -0.185489621
N       0.021022350     -0.215256308      1.479773359
H       0.834408423      0.781774919     -0.679482560
H       0.268157700      0.824884452      1.571248422
H      -0.448983669     -0.446781388      2.506873961
H      -0.637591432     -0.645316464     -0.480136576
           6
  t=        84.00000    1    1
C      -0.025030883      0.200953977     -0.200706918
N       0.014350700     -0.210238154      1.482901534
H       0.780695994      0.846767828     -0.620329954
H       0.382325685      0.790793971      1.610626755
H      -0.456869565     -0.453664956      2.517903926
H      -0.607471044     -0.655536555     -0.451971484
           6
  t=        84.50000    1    1
C      -0.024318746      0.193246934     -0.214940111
N       0.007711415     -0.204086303      1.485830643
H       0.724541698      0.909643677     -0.558720084
H       0.496962100      0.751169763      1.653400890
H      -0.461913791     -0.461239871      2.518477964
H      -0.577139476     -0.664923023     -0.428155212
           6
  t=        85.00000    1    1
C      -0.023704711      0.185020603     -0.227938207
N       0.001209535     -0.196802733      1.488585574
H       0.667207197      0.970765740     -0.496020354
H       0.610259625      0.705300823      1.698674763
H      -0.463959024     -0.469284425      2.508560791
H      -0.548028875     -0.675382765     -0.409723302
           6
  t=        85.50000    1    1
C      -0.023113308      0.176475299     -0.239536518
N      -0.005014746     -0.188392528      1.491216473
H       0.609357841      1.030354635     -0.433303896
H       0.720106126      0.652430867      1.745352784
H      -0.463077888     -0.477677495      2.488439604
H      -0.521466353     -0.688815712     -0.397451937
           6
  t=        86.00000    1    1
C      -0.022439620      0.167835474     -0.249652934
N      -0.010795374     -0.178888867      1.493783308
H       0.550990658      1.088129042     -0.371388533
H       0.824265047      0.592107245      1.792220922
H      -0.459604589     -0.486388325      2.458806945
H      -0.498434603     -0.706730151     -0.391812637
           6
  t=        86.50000    1    1
C      -0.021584674      0.159320755     -0.258263272
N      -0.015953297     -0.168359700      1.496326079
H       0.491642917      1.143179141     -0.310971201
H       0.920620581      0.524380398      1.838072939
H      -0.454174894     -0.495513777      2.420888851
H      -0.479385583     -0.729840790     -0.392972042
           6
  t=        87.00000    1    1
C      -0.020488136      0.151106621     -0.265374025
N      -0.020304537     -0.156896830      1.498834083
H       0.430720092      1.194129782     -0.252757173
H       1.007367614      0.449812623      1.881814705
H      -0.447785692     -0.505369756      2.376596920
H      -0.464197439     -0.757832743     -0.400816270
           6
  t=        87.50000    1    1
C      -0.019140355      0.143300764     -0.271003907
N      -0.023661837     -0.144595381      1.501225694
H       0.367759348      1.239445132     -0.197520251
H       1.083097601      0.369370983      1.922517819
H      -0.441856900     -0.516631102      2.328632630
H      -0.452295557     -0.789422961     -0.414987665
           6
  t=        88.00000    1    1
C      -0.017575109      0.135943169     -0.275175780
N      -0.025835419     -0.131532839      1.503349334
H       0.302555052      1.277714323     -0.146087117
H       1.146801994      0.284283681      1.959434857
H      -0.438224904     -0.530454589      2.280391108
H      -0.442864057     -0.822671473     -0.434928941
           6
  t=        88.50000    1    1
C      -0.015852930      0.129024233     -0.277915061
N      -0.026643761     -0.117762975      1.505019079
H       0.235163654      1.307822524     -0.099286076
H       1.197827212      0.195914511      1.991990041
H      -0.438946844     -0.548427791      2.235451395
H      -0.435050043     -0.855378249     -0.459929111
           6
  t=        89.00000    4    1
C      -0.014044896      0.122509149     -0.279250300
N      -0.025944540     -0.103340955      1.506088041
H       0.165848688      1.329002647     -0.057901445
H       1.235815628      0.105677230      2.019757173
H      -0.445812257     -0.572139440      2.196581963
H      -0.428101047     -0.885420269     -0.489165334
           6
  t=        89.50000    4    1
C      -0.012214452      0.116443893     -0.279441361
N      -0.023658600     -0.088464770      1.506733457
H       0.094675815      1.340799936     -0.022887702
H       1.260643007      0.014686131      2.042096345
H      -0.460084271     -0.601761511      2.164933380
H      -0.421039778     -0.911081560     -0.521562170
           6
  t=        90.00000    4    1
C      -0.010434694      0.110712610     -0.278302265
N      -0.019856332     -0.073265675      1.506865155
H       0.022480736      1.343075997      0.005366283
H       1.272410206     -0.075369080      2.059157886
H      -0.480885804     -0.637207356      2.139021628
H      -0.413831479     -0.930796921     -0.556358625
           6
  t=        90.50000    4    1
C      -0.008765335      0.105299640     -0.275881381
N      -0.014682441     -0.058065542      1.506690371
H      -0.050190665      1.335899887      0.026318831
H       1.271384530     -0.163138351      2.070841538
H      -0.506588825     -0.676287388      2.116230839
H      -0.406195811     -0.943516382     -0.592600389
           6
  t=        91.00000    4    1
C      -0.007261348      0.100205703     -0.272235445
N      -0.008329652     -0.043240307      1.506425805
H      -0.122766079      1.319521094      0.039520731
H       1.257989810     -0.247321484      2.077126082
H      -0.535029790     -0.716004796      2.093751962
H      -0.397960114     -0.948571643     -0.629343317
           6
  t=        91.50000    4    1
C      -0.005974479      0.095447168     -0.267428880
N      -0.000993858     -0.029161155      1.506241857
H      -0.194663389      1.294337699      0.044618685
H       1.232789621     -0.326678005      2.078060887
H      -0.564110905     -0.753344061      2.069381328
H      -0.389029911     -0.945654269     -0.665680354
           6
  t=        92.00000    4    1
C      -0.004953502      0.091055251     -0.261532975
N       0.007151274     -0.016158464      1.506248059
H      -0.265312580      1.260883407      0.041358444
H       1.196471545     -0.400034141      2.073757949
H      -0.592130926     -0.785750633      2.041745888
H      -0.379370344     -0.934807631     -0.700769250
           6
  t=        92.50000    4    1
C      -0.004243206      0.087073885     -0.254625142
N       0.015963070     -0.004510751      1.506500932
H      -0.334187838      1.219835322      0.029605771
H       1.149829312     -0.466280610      2.064386263
H      -0.617881515     -0.811272488      2.010193927
H      -0.368993617     -0.916423390     -0.733856639
           6
  t=        93.00000    4    1
C      -0.003881981      0.083553749     -0.246789166
N       0.025326588      0.005554861      1.507015381
H      -0.400844604      1.172047477      0.009399028
H       1.093769026     -0.524371179      2.050182540
H      -0.640614018     -0.828528209      1.974595712
H      -0.357944913     -0.891230956     -0.764297303
           6
  t=        93.50000    4    1
C      -0.003897868      0.080543376     -0.238116475
N       0.035142077      0.013861353      1.507772559
H      -0.464954940      1.118604503     -0.018982991
H       1.029370574     -0.573350332      2.031482668
H      -0.659956502     -0.836625535      1.935166403
H      -0.346284118     -0.860281019     -0.791570673
           6
  t=        94.00000    4    1
C      -0.004302155      0.078082540     -0.228707414
N       0.045307667      0.020281901      1.508724364
H      -0.526352142      1.060872818     -0.054959708
H       0.958001276     -0.612423788      2.008766375
H      -0.675839399     -0.835066457      1.892337539
H      -0.334065021     -0.824943757     -0.815305390
           6
  t=        94.50000    4    1
C      -0.005082807      0.076200100     -0.218669367
N       0.055701795      0.024742774      1.509792775
H      -0.585085268      1.000520024     -0.097620362
H       0.881477135     -0.641083745      1.982726516
H      -0.688463102     -0.823656061      1.846674711
H      -0.321308436     -0.786908653     -0.835308037
           6
  t=        95.00000    4    1
C      -0.006202167      0.074919119     -0.208110049
N       0.066167471      0.027230020      1.510861758
H      -0.641455380      0.939446682     -0.145747641
H       0.802268791     -0.659310635      1.954386249
H      -0.698321205     -0.802417308      1.798833554
H      -0.307957409     -0.748153631     -0.851579956
           6
  t=        95.50000    4    1
C      -0.007607504      0.074272410     -0.197127174
N       0.076499546      0.027797287      1.511753514
H      -0.695977134      0.879552562     -0.197872868
H       0.723751547     -0.667879961      1.925289770
H      -0.706301386     -0.771468430      1.749582263
H      -0.293762400     -0.710820818     -0.864268352
           6
  t=        96.00000    4    1
C      -0.009230116      0.074326796     -0.185745955
N       0.086401569      0.026785469      1.512269356
H      -0.748829904      0.822524546     -0.253072262
H       0.649991648     -0.669951461      1.898124084
H      -0.712503983     -0.732234706      1.699162953
H      -0.279208947     -0.677544241     -0.874165294
           6
  t=        96.50000    5    2
C      -0.011056363      0.075221487     -0.174059316
N       0.095519550      0.024585897      1.512115512
H      -0.799916658      0.769279445     -0.309874000
H       0.586366636     -0.670348054      1.876198053
H      -0.718004577     -0.685487322      1.648437005
H      -0.263940004     -0.650741458     -0.881724619
           6
  t=        97.00000    5    2
C      -0.013272517      0.076573287     -0.161657987
N       0.103552528      0.022143599      1.510765404
H      -0.848318872      0.721488787     -0.365329825
H       0.539231702     -0.676396143      1.860976529
H      -0.726182647     -0.633444103      1.598351434
H      -0.245450235     -0.631107642     -0.889863152
           6
  t=        97.50000    5    2
C      -0.015956112      0.079078013     -0.149515694
N       0.110191955      0.019724826      1.508051834
H      -0.892218452      0.677861790     -0.417375344
H       0.510784851     -0.695108663      1.858256295
H      -0.736002942     -0.576837558      1.550922846
H      -0.223580720     -0.621590933     -0.894541519
           6
  t=        98.00000    5    2
C      -0.019014879      0.082590772     -0.137553704
N       0.115630039      0.017831790      1.503502806
H      -0.932268791      0.638768687     -0.464010012
H       0.498801138     -0.729487050      1.869232999
H      -0.749335196     -0.519070451      1.508073434
H      -0.197352659     -0.621410068     -0.895257542
           6
  t=        98.50000    5    2
C      -0.022378374      0.087084595     -0.125558356
N       0.120271763      0.016166857      1.497267675
H      -0.968743512      0.603589946     -0.505897207
H       0.499447118     -0.774054039      1.891466248
H      -0.767778589     -0.461094215      1.469216991
H      -0.167525505     -0.630014795     -0.892940422
           6
  t=        99.00000    5    2
C      -0.026089990      0.092512751     -0.113628886
N       0.124465239      0.014328712      1.489704612
H      -1.000913110      0.571791221     -0.542918242
H       0.508344086     -0.822135120      1.921149475
H      -0.791772832     -0.403647092      1.434000196
H      -0.134330490     -0.646674607     -0.887343931
           6
  t=        99.50000    5    2
C      -0.030198440      0.098765340     -0.101944357
N       0.128460141      0.011995085      1.481162627
H      -1.028024248      0.542951661     -0.574753521
H       0.521512774     -0.868107615      1.954539805
H      -0.820860038     -0.347398450      1.402357992
H      -0.097888597     -0.670135678     -0.877696946
           6
  t=       100.00000    5    2
C      -0.034735006      0.105689613     -0.090683280
N       0.132391802      0.008963351      1.471925132
H      -1.049471340      0.516701734     -0.601144876
H       0.535859660     -0.908099408      1.988576865
H      -0.853835976     -0.292841506      1.374380824
H      -0.058424022     -0.698773271     -0.863100015
