           6
  t=         0.00000    9    3
C       0.015859034     -0.002856324      0.015233567
N       0.002525498     -0.013215407      1.317134858
H       0.962216835     -0.071985770     -0.548055544
H       0.694591186      0.190697533      1.893054942
H      -0.806320011     -0.040894450      1.858707605
H      -1.074408981      0.139855949     -0.413808435
           6
  t=         0.50000    9    3
C       0.018882431     -0.002837818      0.010432379
N       0.000275292     -0.012017183      1.321851364
H       0.945383848     -0.071193118     -0.550266633
H       0.717238507      0.183720875      1.889979719
H      -0.814282833     -0.047006332      1.856588783
H      -1.076995594      0.135282185     -0.414769635
           6
  t=         1.00000    9    3
C       0.021406343     -0.002803586      0.003715667
N      -0.002320853     -0.010901206      1.328095359
H       0.928517465     -0.069124461     -0.554587034
H       0.749871919      0.177351973      1.891788197
H      -0.826491142     -0.052555628      1.854986495
H      -1.074535528      0.129217607     -0.417437411
           6
  t=         1.50000    9    3
C       0.023394748     -0.002744962     -0.004591059
N      -0.005110435     -0.009779771      1.335803666
H       0.912914544     -0.065880578     -0.561903295
H       0.789210582      0.170427487      1.896389159
H      -0.842062485     -0.057458315      1.853915321
H      -1.067617264      0.121520500     -0.421846559
           6
  t=         2.00000    9    3
C       0.024853465     -0.002644792     -0.014110335
N      -0.007944179     -0.008574790      1.344883764
H       0.899818205     -0.061570483     -0.573108307
H       0.831609320      0.161820422      1.901605340
H      -0.859827623     -0.061581405      1.853287819
H      -1.057151373      0.112004675     -0.428048381
           6
  t=         2.50000    9    3
C       0.025852152     -0.002475983     -0.024450026
N      -0.010724764     -0.007229920      1.355188630
H       0.890170539     -0.056327043     -0.588927998
H       0.873827567      0.150647299      1.905655775
H      -0.878470464     -0.064792031      1.852997250
H      -1.044337071      0.100448165     -0.436055520
           6
  t=         3.00000    9    3
C       0.026535953     -0.002200933     -0.035245814
N      -0.013424140     -0.005713611      1.366519598
H       0.884400079     -0.050324613     -0.609728188
H       0.913411781      0.136347041      1.907299654
H      -0.896675165     -0.067002861      1.852987410
H      -1.030583113      0.086612959     -0.445782681
           6
  t=         3.50000    9    3
C       0.027119312     -0.001773652     -0.046198128
N      -0.016073912     -0.004016646      1.378647158
H       0.882329038     -0.043787602     -0.635372327
H       0.948752513      0.118676687      1.905764679
H      -0.913267206     -0.068202033      1.853286612
H      -1.017391029      0.070278941     -0.457000494
           6
  t=         4.00000    9    3
C       0.027862288     -0.001146307     -0.057093246
N      -0.018742022     -0.002147657      1.391336430
H       0.883237934     -0.036982331     -0.665190247
H       0.978955896      0.097676621      1.900596422
H      -0.927325255     -0.068464803      1.854001808
H      -1.006221275      0.051297671     -0.469312861
           6
  t=         4.50000    9    3
C       0.029037637     -0.000281486     -0.067803584
N      -0.021508952     -0.000129566      1.404365884
H       0.886051367     -0.030182155     -0.698071586
H       1.003656852      0.073645305      1.891518290
H      -0.938247991     -0.067946475      1.855295247
H      -0.998364086      0.029672382     -0.482156941
           6
  t=         5.00000    9    3
C       0.030898461      0.000825289     -0.078271014
N      -0.024450431      0.002001408      1.417534827
H       0.889566911     -0.023599404     -0.732640838
H       1.022851953      0.047164497      1.878337677
H      -0.945777476     -0.066865314      1.857365692
H      -0.994833003      0.005701849     -0.494818009
           6
  t=         5.50000    9    3
C       0.033637087      0.002101420     -0.088492418
N      -0.027613679      0.004191742      1.430669937
H       0.892671460     -0.017257910     -0.767426122
H       1.036701159      0.019237544      1.860922972
H      -0.950001629     -0.065484779      1.860425850
H      -0.996220857     -0.019721930     -0.506477962
           6
  t=         6.00000    9    3
C       0.037261673      0.003340573     -0.098553978
N      -0.030924256      0.006371203      1.443667039
H       0.894598572     -0.010800916     -0.800932327
H       1.044951541     -0.008585774      1.839409425
H      -0.951377411     -0.064083727      1.864616764
H      -1.002182742     -0.044793974     -0.516434618
           6
  t=         6.50000    9    3
C       0.041479683      0.004291125     -0.108659642
N      -0.034097255      0.008491311      1.456524190
H       0.895101756     -0.003582885     -0.831766471
H       1.046393795     -0.034923180      1.814588069
H      -0.950714652     -0.062854182      1.869939659
H      -1.010928494     -0.067680483     -0.524417829
           6
  t=         7.00000    9    3
C       0.045932354      0.004803460     -0.118997561
N      -0.036830300      0.010544856      1.469240230
H       0.894184478      0.004954374     -0.858906455
H       1.039935545     -0.059211222      1.787607397
H      -0.948960171     -0.061859865      1.876400530
H      -1.020351929     -0.087557739     -0.530347807
           6
  t=         7.50000    9    3
C       0.050337398      0.004795274     -0.129682209
N      -0.038922156      0.012541855      1.481773135
H       0.891946050      0.015258117     -0.881716820
H       1.025287194     -0.081320893      1.759637091
H      -0.947039688     -0.061105453      1.884047883
H      -1.028771936     -0.104156512     -0.534131265
           6
  t=         8.00000    9    3
C       0.054474545      0.004207430     -0.140774096
N      -0.040270862      0.014499401      1.494060481
H       0.888590053      0.027734504     -0.899872946
H       1.002977265     -0.101309377      1.731847555
H      -0.945755965     -0.060569954      1.892907060
H      -1.034911809     -0.117380136     -0.535700743
           6
  t=         8.50000    9    3
C       0.058163900      0.002989874     -0.152295490
N      -0.040870673      0.016442203      1.506036336
H       0.884430248      0.042780755     -0.913316637
H       0.974377618     -0.119393147      1.705434237
H      -0.945686613     -0.060210961      1.902922298
H      -1.037817417     -0.127199101     -0.535072912
           6
  t=         9.00000    9    3
C       0.061255947      0.001099553     -0.164235314
N      -0.040817617      0.018407014      1.517638659
H       0.879872469      0.060791788     -0.922231632
H       0.941797071     -0.136003640      1.681623203
H      -0.947104527     -0.059964756      1.913928506
H      -1.036816024     -0.133638654     -0.532394858
           6
  t=         9.50000    9    3
C       0.063627963     -0.001494970     -0.176546066
N      -0.040309665      0.020448172      1.528810076
H       0.875379405      0.082145074     -0.927028338
H       0.908524498     -0.151875115      1.661654930
H      -0.949951100     -0.059751811      1.925656131
H      -1.031505843     -0.136802176     -0.527995549
           6
  t=        10.00000    9    3
C       0.065181798     -0.004799307     -0.189130410
N      -0.039622100      0.022641646      1.539491021
H       0.871421309      0.107141127     -0.928341961
H       0.878605097     -0.168124768      1.646767973
H      -0.953869318     -0.059497062      1.937767205
H      -1.021765811     -0.136936800     -0.522471670
           6
  t=        10.50000    9    3
C       0.065836639     -0.008748658     -0.201804662
N      -0.039036833      0.025082361      1.549595367
H       0.868435549      0.135797414     -0.927066609
H       0.856083618     -0.186285392      1.638240692
H      -0.958274072     -0.059191771      1.949912889
H      -1.007783974     -0.134626410     -0.516849065
           6
  t=        11.00000    9    3
C       0.065521329     -0.013080567     -0.214228334
N      -0.038737118      0.027872064      1.558955236
H       0.866921038      0.167197985     -0.924377756
H       0.843752974     -0.208278091      1.637407890
H      -0.962418718     -0.059094484      1.961784872
H      -0.990205360     -0.131314130     -0.512700342
           6
  t=        11.50000    9    3
C       0.064239520     -0.017304859     -0.225977292
N      -0.038782383      0.031095293      1.567354696
H       0.867692363      0.199167859     -0.921219271
H       0.842411803     -0.235904809      1.644821201
H      -0.965576891     -0.059896295      1.973061357
H      -0.970587320     -0.129342986     -0.511361302
           6
  t=        12.00000    9    3
C       0.062125192     -0.021065252     -0.236767287
N      -0.039098913      0.034778929      1.574677270
H       0.871416306      0.230038247     -0.917786473
H       0.850611253     -0.269771089      1.659854303
H      -0.967330299     -0.062220178      1.983370461
H      -0.951185542     -0.130431340     -0.513404569
           6
  t=        12.50000    8    2
C       0.059385112     -0.024178707     -0.246423091
N      -0.039456826      0.038883343      1.580881660
H       0.878210833      0.258970436     -0.913842150
H       0.864806618     -0.309281443      1.681496206
H      -0.967542903     -0.066454777      1.992396208
H      -0.934365388     -0.135576114     -0.519252977
           6
  t=        13.00000    8    2
C       0.055887644     -0.027813502     -0.257791374
N      -0.039876195      0.044338963      1.587901575
H       0.888872692      0.294694997     -0.906427130
H       0.885805581     -0.361998488      1.711978848
H      -0.966612286     -0.073250542      2.001705028
H      -0.919487669     -0.144312214     -0.528637000
           6
  t=        13.50000    8    2
C       0.052933783     -0.031884394     -0.269466136
N      -0.040196604      0.049968356      1.595044904
H       0.899646820      0.332795946     -0.894799483
H       0.906600353     -0.414849602      1.742075094
H      -0.965363513     -0.080371716      2.008918259
H      -0.912683801     -0.152187155     -0.537817235
           6
  t=        14.00000    8    2
C       0.050704830     -0.036322793     -0.281404454
N      -0.040135858      0.055629636      1.602372822
H       0.909606910      0.372728824     -0.878723138
H       0.923425274     -0.465906127      1.770859337
H      -0.964055860     -0.087778212      2.013889758
H      -0.915082190     -0.159470493     -0.547319057
           6
  t=        14.50000    8    2
C       0.049268685     -0.041059898     -0.293576314
N      -0.039509639      0.061201730      1.609928514
H       0.917926113      0.413866030     -0.858089799
H       0.933868831     -0.513573560      1.797546810
H      -0.962940765     -0.095422397      2.016537594
H      -0.926562481     -0.166313746     -0.557341471
           6
  t=        15.00000    8    2
C       0.048574605     -0.046036130     -0.305963699
N      -0.038210321      0.066584440      1.617738180
H       0.923905092      0.455563499     -0.832934967
H       0.936567371     -0.556612616      1.821525479
H      -0.962234438     -0.103221876      2.016818286
H      -0.945736670     -0.172711721     -0.567772020
           6
  t=        15.50000    8    2
C       0.048478393     -0.051202529     -0.318551298
N      -0.036184298      0.071692542      1.625813590
H       0.926993406      0.497205681     -0.803435407
H       0.930885417     -0.594075383      1.842341016
H      -0.962102630     -0.111039876      2.014704850
H      -0.970280989     -0.178532410     -0.578298450
           6
  t=        16.00000    8    2
C       0.048781506     -0.056518912     -0.331312275
N      -0.033414790      0.076449009      1.634153202
H       0.926810551      0.538245032     -0.769896234
H       0.916680802     -0.625225879      1.859673203
H      -0.962650537     -0.118670217      2.010170178
H      -0.997436712     -0.183578616     -0.588566431
           6
  t=        16.50000    8    2
C       0.049263826     -0.061953500     -0.344189313
N      -0.029910495      0.080779212      1.642738781
H       0.923178664      0.578255571     -0.732749379
H       0.894165239     -0.649477168      1.873326828
H      -0.963912358     -0.125826696      2.003178192
H      -1.024461700     -0.187638969     -0.598341878
           6
  t=        17.00000    8    2
C       0.049690701     -0.067493183     -0.357056014
N      -0.025696241      0.084603355      1.651518399
H       0.916223201      0.617072395     -0.692600464
H       0.863845343     -0.666331035      1.883266542
H      -0.965832458     -0.132125842      1.993681161
H      -1.048904737     -0.190477630     -0.607719539
           6
  t=        17.50000    8    2
C       0.049727184     -0.073219077     -0.369497005
N      -0.020787445      0.087794062      1.660295773
H       0.906990918      0.655612625     -0.650723611
H       0.826526376     -0.675124957      1.889907391
H      -0.968130458     -0.136975592      1.981652992
H      -1.068695887     -0.191530693     -0.618032814
           6
  t=        18.00000    8    2
C       0.049597317     -0.078905887     -0.381750536
N      -0.015327892      0.090482701      1.669175906
H       0.893887431      0.691440710     -0.606295993
H       0.783299867     -0.676797572      1.892283336
H      -0.971054312     -0.140848218      1.966412275
H      -1.083754133     -0.191459485     -0.627079242
           6
  t=        18.50000    8    2
C       0.049238657     -0.084488810     -0.393755374
N      -0.009453800      0.092663445      1.678116878
H       0.876859922      0.724074449     -0.559766555
H       0.735797972     -0.671936603      1.890636127
H      -0.974425093     -0.143284279      1.947987934
H      -1.093201603     -0.190344174     -0.634827159
           6
  t=        19.00000    8    2
C       0.048617560     -0.089899281     -0.405439402
N      -0.003354194      0.094374597      1.687051115
H       0.855956444      0.753077806     -0.511626625
H       0.686302382     -0.661822283      1.885455763
H      -0.978012898     -0.143780859      1.926487782
H      -1.096570948     -0.188320002     -0.641302851
           6
  t=        19.50000    8    2
C       0.047726667     -0.095067525     -0.416721387
N       0.002719727      0.095721517      1.695880601
H       0.831330522      0.778081637     -0.462407212
H       0.637892363     -0.648728015      1.877542771
H      -0.981556043     -0.141810567      1.902117910
H      -1.093778807     -0.185566502     -0.646587289
           6
  t=        20.00000    8    2
C       0.046583880     -0.099925195     -0.427512612
N       0.008456541      0.096894917      1.704476003
H       0.803243136      0.798805445     -0.412674980
H       0.594443170     -0.636143087      1.868020388
H      -0.984787175     -0.136852895      1.875199893
H      -1.085114882     -0.182298029     -0.650817975
           6
  t=        20.50000    8    2
C       0.045232518     -0.104408412     -0.437718660
N       0.013515361      0.098159376      1.712685916
H       0.772063927      0.815083409     -0.363022612
H       0.560228382     -0.628568065      1.858215999
H      -0.987459753     -0.128437005      1.846179598
H      -1.071248349     -0.178755780     -0.654195979
           6
  t=        21.00000    8    2
C       0.043742510     -0.108461185     -0.447241535
N       0.017600254      0.099779788      1.720359981
H       0.738268845      0.826892187     -0.314052741
H       0.538921712     -0.630436995      1.849363822
H      -0.989376455     -0.116192782      1.815623629
H      -1.053247015     -0.175199682     -0.656997204
           6
  t=        21.50000    8    2
C       0.042212180     -0.112038539     -0.455982206
N       0.020558670      0.101890875      1.727376924
H       0.702428376      0.834372005     -0.266356667
H       0.532262107     -0.644248727      1.842252724
H      -0.990413246     -0.099898855      1.784201308
H      -1.032595510     -0.171899870     -0.659582636
           6
  t=        22.00000    8    2
C       0.040769260     -0.115107906     -0.463844491
N       0.022436084      0.104400654      1.733657099
H       0.665182242      0.837826148     -0.220496620
H       0.539320687     -0.669180315      1.837110708
H      -0.990540439     -0.079518616      1.752654125
H      -1.011187067     -0.169128920     -0.662398135
           6
  t=        22.50000    8    2
C       0.039566581     -0.117648292     -0.470740389
N       0.023437533      0.107023286      1.739152107
H       0.627204149      0.837692214     -0.176995879
H       0.557048459     -0.701518575      1.833824612
H      -0.989833636     -0.055211584      1.721753663
H      -0.991239404     -0.167156520     -0.665954191
           6
  t=        23.00000    8    2
C       0.038765273     -0.119649304     -0.476596763
N       0.023835223      0.109406665      1.743829267
H       0.589173071      0.834506239     -0.136328188
H       0.581565454     -0.736429755      1.832233416
H      -0.988470577     -0.027316769      1.692248776
H      -0.975074438     -0.166244900     -0.670781640
           6
  t=        23.50000    8    2
C       0.038502842     -0.121112286     -0.481362857
N       0.023892813      0.111243512      1.747665088
H       0.551755421      0.828883991     -0.098893458
H       0.609209269     -0.769525525      1.832267553
H      -0.986710117      0.003692065      1.664816481
H      -0.964737973     -0.166638973     -0.677365971
           6
  t=        24.00000    8    2
C       0.038854962     -0.122052570     -0.485017843
N       0.023830583      0.112316590      1.750646931
H       0.515593818      0.821513657     -0.064988190
H       0.636988969     -0.797530918      1.833940403
H      -0.984844689      0.037264523      1.640023811
H      -0.961550947     -0.168550560     -0.686063497
           6
  t=        24.50000    8    2
C       0.039807188     -0.122500372     -0.487575839
N       0.023818010      0.112495935      1.752774993
H       0.481291924      0.813141431     -0.034787058
H       0.662631129     -0.818294343      1.837297562
H      -0.983134057      0.072830014      1.618314803
H      -0.965766609     -0.172141319     -0.697023781
           6
  t=        25.00000    8    2
C       0.041250686     -0.122499467     -0.489085810
N       0.023976941      0.111718651      1.754061428
H       0.449396688      0.804544795     -0.008344461
H       0.684466388     -0.830549850      1.842379203
H      -0.981735876      0.109838216      1.600021623
H      -0.976501996     -0.177509233     -0.710150633
           6
  t=        25.50000    8    2
C       0.043004089     -0.122103928     -0.489625372
N       0.024386667      0.109968831      1.754526666
H       0.420382136      0.796496477      0.014385093
H       0.701297363     -0.833667167      1.849206136
H      -0.980649807      0.147777911      1.585394050
H      -0.991976289     -0.184681219     -0.725119847
           6
  t=        26.00000    8    2
C       0.044850465     -0.121373350     -0.489290573
N       0.025088157      0.107263813      1.754194379
H       0.394639906      0.789725008      0.033515198
H       0.712300265     -0.827472693      1.857787253
H      -0.979687574      0.186175168      1.574636896
H      -1.009931890     -0.193616816     -0.741443964
           6
  t=        26.50000    8    2
C       0.046573331     -0.120367699     -0.488184086
N       0.026086768      0.103647226      1.753085809
H       0.372477292      0.784875479      0.049190540
H       0.716975840     -0.812152061      1.868137047
H      -0.978472620      0.224580351      1.567949179
H      -1.028050180     -0.204218016     -0.758553868
           6
  t=        27.00000    8    2
C       0.047982294     -0.119142333     -0.486404529
N       0.027353275      0.099188489      1.751214444
H       0.354119039      0.782473449      0.061548534
H       0.715155231     -0.788236271      1.880303141
H      -0.976471652      0.262552293      1.565553316
H      -1.044247317     -0.216343620     -0.775870158
           6
  t=        27.50000    8    2
C       0.048926943     -0.117743690     -0.484037812
N       0.028822601      0.093988246      1.748581181
H       0.339705516      0.782892269      0.070679654
H       0.707070651     -0.756674075      1.894406529
H      -0.973056727      0.299649825      1.567705001
H      -1.056828712     -0.229822506     -0.792849562
           6
  t=        28.00000    8    2
C       0.049302046     -0.116205949     -0.481150706
N       0.030389002      0.088188741      1.745168935
H       0.329285894      0.786326772      0.076591294
H       0.693500516     -0.718986281      1.910708485
H      -0.967588629      0.335438630      1.574682788
H      -1.064538915     -0.244463816     -0.809006854
           6
  t=        28.50000    8    2
C       0.049047490     -0.114549104     -0.477786772
N       0.031897279      0.081986186      1.740934303
H       0.322812350      0.792781215      0.079186678
H       0.675978576     -0.677465641      1.929725906
H      -0.959505260      0.369516609      1.586767567
H      -1.066553843     -0.260065101     -0.823921359
           6
  t=        29.00000    8    2
C       0.048145508     -0.112779015     -0.473964546
N       0.033134351      0.075637012      1.735794775
H       0.320140790      0.802078876      0.078270761
H       0.656992680     -0.635309903      1.952402542
H      -0.948401562      0.401558477      1.604221683
H      -1.062450105     -0.276419794     -0.837236955
           6
  t=        29.50000    8    2
C       0.046617089     -0.110889746     -0.469677257
N       0.033835345      0.069439694      1.729615397
H       0.321037584      0.813895828      0.073591956
H       0.639967165     -0.596435432      1.980272865
H      -0.934092471      0.431384033      1.627263749
H      -1.052173164     -0.293325210     -0.848660704
           6
  t=        30.00000    7    1
C       0.044518763     -0.108870719     -0.464890708
N       0.033722677      0.063662549      1.722212696
H       0.325187514      0.827825750      0.064969425
H       0.628739609     -0.564589619      2.015341526
H      -0.916622804      0.459099601      1.655973801
H      -1.036016806     -0.310587963     -0.857954372
           6
  t=        30.50000    7    1
C       0.041784262     -0.106617872     -0.459517346
N       0.032740818      0.058504361      1.713529377
H       0.331979676      0.842948138      0.052031205
H       0.625162035     -0.542476912      2.059297968
H      -0.896064884      0.484857806      1.689773683
H      -1.013589298     -0.328736827     -0.866103706
           6
  t=        31.00000    4    1
C       0.038688971     -0.104147902     -0.453575582
N       0.030894548      0.053898795      1.703311200
H       0.341188139      0.858938734      0.034145385
H       0.629441045     -0.529350987      2.114252120
H      -0.873755757      0.508641029      1.729989221
H      -0.986879575     -0.347055692     -0.872160803
           6
  t=        31.50000    4    1
C       0.035292731     -0.101396702     -0.446942576
N       0.028605832      0.049148675      1.691691681
H       0.351967779      0.876096735      0.012604758
H       0.636787380     -0.518330656      2.177736944
H      -0.849541750      0.533246966      1.775942411
H      -0.956982498     -0.366599223     -0.877591232
           6
  t=        32.00000    4    1
C       0.031870516     -0.098351014     -0.439584882
N       0.025943431      0.044296748      1.678701570
H       0.364164784      0.893158119     -0.013950821
H       0.646257005     -0.508673348      2.248744993
H      -0.824720166      0.557470175      1.828132330
H      -0.925732249     -0.386392261     -0.881351918
           6
  t=        32.50000    4    1
C       0.028711110     -0.095079877     -0.431218379
N       0.022842527      0.038575014      1.664286221
H       0.377125812      0.911364353     -0.044253069
H       0.656415774     -0.493550950      2.323929415
H      -0.797534128      0.584316432      1.886495589
H      -0.895336137     -0.406017264     -0.883924597
           6
  t=        33.00000    4    1
C       0.025850139     -0.091694020     -0.422060814
N       0.019845834      0.032661696      1.649421572
H       0.390686861      0.929996860     -0.077363122
H       0.663146519     -0.475982097      2.396386410
H      -0.770133618      0.610086673      1.947248828
H      -0.867327859     -0.426143000     -0.886528336
           6
  t=        33.50000    4    1
C       0.023446894     -0.088267781     -0.412000582
N       0.016929900      0.026472534      1.634302748
H       0.404845956      0.949832736     -0.111204755
H       0.665651522     -0.454294009      2.462417609
H      -0.741402522      0.634729855      2.008488477
H      -0.843594611     -0.447112432     -0.889677415
           6
  t=        34.00000    4    1
C       0.021647976     -0.084452998     -0.401022220
N       0.014108141      0.019993003      1.619254216
H       0.418685808      0.968227991     -0.148005680
H       0.662601386     -0.428199844      2.520292380
H      -0.710459175      0.657400078      2.069401186
H      -0.824703346     -0.469666187     -0.893292512
           6
  t=        34.50000    4    1
C       0.020505015     -0.080095811     -0.389139949
N       0.011356305      0.013324567      1.604576299
H       0.431539604      0.983752445     -0.188339557
H       0.653682220     -0.398275380      2.568228037
H      -0.676649620      0.677111106      2.128163915
H      -0.810605131     -0.494053864     -0.897197705
           6
  t=        35.00000    4    1
C       0.020001641     -0.075125194     -0.376405116
N       0.008642289      0.006591089      1.590528422
H       0.442866004      0.995457468     -0.232189795
H       0.639119540     -0.365458767      2.604819014
H      -0.639685414      0.693071630      2.182706408
H      -0.800631577     -0.520164019     -0.900926931
           6
  t=        35.50000    4    1
C       0.020071575     -0.069519781     -0.362897676
N       0.005946088     -0.000101146      1.577320215
H       0.452219750      1.002676011     -0.279281899
H       0.619406868     -0.330810390      2.629037201
H      -0.599694982      0.704857530      2.231091026
H      -0.793635413     -0.547576307     -0.903749594
           6
  t=        36.00000    4    1
C       0.020624352     -0.063269684     -0.348695440
N       0.003256536     -0.006708881      1.565046344
H       0.459273078      1.004869807     -0.329287095
H       0.595037617     -0.295115428      2.640400163
H      -0.557012013      0.712471361      2.272120020
H      -0.788216299     -0.575688557     -0.904703126
           6
  t=        36.50000    4    1
C       0.021592141     -0.056332581     -0.333976729
N       0.000458777     -0.013152685      1.553759953
H       0.463735143      1.001132969     -0.381719119
H       0.567185626     -0.259274988      2.639570464
H      -0.511549391      0.715604433      2.304875011
H      -0.782940867     -0.603992685     -0.902633151
           6
  t=        37.00000    4    1
C       0.022807030     -0.048905608     -0.318920327
N      -0.002377094     -0.019305742      1.543685134
H       0.465566778      0.992038928     -0.435392809
H       0.537125845     -0.225288595      2.625709355
H      -0.465055854      0.715058572      2.327338948
H      -0.776270738     -0.631279185     -0.896853862
           6
  t=        37.50000    4    1
C       0.024104964     -0.041118692     -0.303589676
N      -0.005215536     -0.025097194      1.534759256
H       0.465197783      0.978449901     -0.489117917
H       0.505630015     -0.194578898      2.599050259
H      -0.418478955      0.711568869      2.338838899
H      -0.767000397     -0.657160189     -0.886490411
           6
  t=        38.00000    4    1
C       0.025407520     -0.033131370     -0.288054462
N      -0.008060270     -0.030479521      1.526906563
H       0.462778534      0.961363089     -0.542110440
H       0.473974445     -0.168667827      2.560557238
H      -0.372913981      0.706257404      2.339024603
H      -0.754475733     -0.680993737     -0.871058273
           6
  t=        38.50000    4    1
C       0.026651677     -0.025095115     -0.272347605
N      -0.010927498     -0.035420634      1.519964339
H       0.458511187      0.941871655     -0.593714608
H       0.443631367     -0.149204453      2.511909094
H      -0.329467820      0.700582720      2.327911939
H      -0.738288760     -0.702324777     -0.850255113
           6
  t=        39.00000    4    1
C       0.027790815     -0.017145729     -0.256462588
N      -0.013859682     -0.039896826      1.513658960
H       0.452599951      0.921060304     -0.643390643
H       0.416409284     -0.138029693      2.455828395
H      -0.289201585      0.696331263      2.305845947
H      -0.718246016     -0.720895959     -0.823964068
           6
  t=        39.50000    4    1
C       0.028795763     -0.009396290     -0.240352760
N      -0.016941952     -0.043883001      1.507578106
H       0.445206291      0.899900073     -0.690679849
H       0.394590264     -0.137198065      2.396462444
H      -0.253036202      0.695536577      2.273467463
H      -0.694339918     -0.736659623     -0.792258528
           6
  t=        40.00000    4    1
C       0.029655651     -0.001932554     -0.223933670
N      -0.020314578     -0.047339333      1.501160428
H       0.436414898      0.879168875     -0.735153462
H       0.380947473     -0.148901610      2.339553714
H      -0.221592743      0.700256681      2.231674009
H      -0.666728875     -0.749791940     -0.755413187
           6
  t=        40.50000    1    1
C       0.030378243      0.005188585     -0.207088501
N      -0.024161464     -0.050196682      1.493751256
H       0.426216035      0.859415240     -0.776365221
H       0.378407626     -0.175259895      2.291762144
H      -0.195011011      0.712196545      2.181559205
H      -0.635727304     -0.760710094     -0.713922616
           6
  t=        41.00000    1    1
C       0.030960206      0.011982439     -0.189792040
N      -0.028648149     -0.052357320      1.484920235
H       0.415392843      0.840340720     -0.814039350
H       0.390320829     -0.217617346      2.257612109
H      -0.174333803      0.731702626      2.124231641
H      -0.602085899     -0.769657839     -0.668016238
           6
  t=        41.50000    1    1
C       0.031472099      0.018399236     -0.171765444
N      -0.033799113     -0.053721817      1.474254842
H       0.402866173      0.822731438     -0.847439724
H       0.415200022     -0.276722786      2.238905625
H      -0.157183284      0.759337326      2.061065204
H      -0.566116270     -0.778023756     -0.619194477
           6
  t=        42.00000    1    1
C       0.031963947      0.024452495     -0.152835046
N      -0.039439547     -0.054261097      1.461866621
H       0.388382930      0.806613622     -0.876034542
H       0.449740180     -0.350965355      2.231405390
H      -0.142354304      0.794108223      1.993375773
H      -0.528489966     -0.787017468     -0.568685380
           6
  t=        42.50000    1    1
C       0.032481669      0.030162238     -0.132825123
N      -0.045262819     -0.054030193      1.448048709
H       0.371651437      0.791912447     -0.899314075
H       0.488733069     -0.436587916      2.228409289
H      -0.128521299      0.834226848      1.922599815
H      -0.489839826     -0.798006587     -0.517898243
           6
  t=        43.00000    1    1
C       0.033046120      0.035553816     -0.111572381
N      -0.050953352     -0.053139456      1.433038957
H       0.352368406      0.778414381     -0.916816835
H       0.526962544     -0.528620773      2.224039871
H      -0.114371322      0.877548669      1.850411816
H      -0.450592423     -0.812371323     -0.468340720
           6
  t=        43.50000    1    1
C       0.033658316      0.040679874     -0.089039845
N      -0.056251856     -0.051673608      1.417146421
H       0.330451883      0.765928432     -0.928191500
H       0.560410745     -0.622618278      2.213718344
H      -0.099171307      0.921733247      1.777427809
H      -0.410995766     -0.831475590     -0.421135764
           6
  t=        44.00000    1    1
C       0.034298041      0.045497753     -0.065306036
N      -0.060999812     -0.049597322      1.400591350
H       0.305922507      0.754415124     -0.933147617
H       0.586690489     -0.714988996      2.195020728
H      -0.082559551      0.963919188      1.704427968
H      -0.371006850     -0.855992853     -0.377055269
           6
  t=        44.50000    1    1
C       0.034908606      0.049867778     -0.040524367
N      -0.065099586     -0.046835063      1.383488347
H       0.278809414      0.743861849     -0.931458732
H       0.604499923     -0.802909201      2.167142398
H      -0.064394744      1.001652247      1.632752348
H      -0.330175810     -0.885666396     -0.336626836
           6
  t=        45.00000    1    1
C       0.035414988      0.053570349     -0.014929896
N      -0.068490665     -0.043302577      1.365936560
H       0.249171627      0.734302526     -0.923004924
H       0.613208641     -0.884243577      2.130093083
H      -0.044750159      1.033098287      1.563982114
H      -0.287805490     -0.919387239     -0.300140051
           6
  t=        45.50000    1    1
C       0.035746000      0.056333003      0.011153778
N      -0.071136157     -0.038930685      1.348075047
H       0.217106044      0.725826242     -0.907800888
H       0.612559822     -0.957322935      2.084265513
H      -0.023855050      1.057066105      1.499787738
H      -0.243171734     -0.955439503     -0.267722507
           6
  t=        46.00000    1    1
C       0.035853375      0.057865579      0.037299568
N      -0.073015728     -0.033685917      1.330126090
H       0.182750358      0.718578130     -0.886014618
H       0.602472057     -1.020707403      2.030214209
H      -0.002033167      1.072960445      1.441824744
H      -0.195714861     -0.991823069     -0.239419485
           6
  t=        46.50000    1    1
C       0.035725308      0.057893837      0.062947655
N      -0.074122928     -0.027592317      1.312438040
H       0.146284081      0.712751931     -0.857973712
H       0.582903647     -1.072916776      1.968544508
H       0.020356472      1.080692460      1.391661124
H      -0.145162715     -1.026523617     -0.215251138
           6
  t=        47.00000    1    1
C       0.035398961      0.056191242      0.087335989
N      -0.074461623     -0.020775807      1.295555103
H       0.107940094      0.708534436     -0.824130790
H       0.553675133     -1.111881061      1.899797803
H       0.042987101      1.080561331      1.350769587
H      -0.091630772     -1.057650220     -0.195266741
           6
  t=        47.50000    1    1
C       0.034858039      0.052677818      0.109908779
N      -0.074352716     -0.013111579      1.279447773
H       0.068685289      0.705455741     -0.783705447
H       0.519000151     -1.140959444      1.828254341
H       0.066053178      1.074120507      1.320557035
H      -0.035841190     -1.083709081     -0.178906171
           6
  t=        48.00000    1    1
C       0.034178102      0.047233120      0.129852459
N      -0.073853938     -0.004751123      1.264791255
H       0.028860652      0.704067667     -0.737959881
H       0.479287374     -1.159560044      1.755165919
H       0.089251328      1.062584579      1.301568611
H       0.021662162     -1.103519529     -0.166398720
           6
  t=        48.50000    1    1
C       0.033464745      0.039780850      0.146263798
N      -0.073032924      0.004106532      1.252374497
H      -0.011213062      0.705069960     -0.688502507
H       0.434913165     -1.167021600      1.681905589
H       0.112281816      1.047411550      1.294117596
H       0.080164335     -1.116226736     -0.158029621
           6
  t=        49.00000    1    1
C       0.032840504      0.030278257      0.158230690
N      -0.071965232      0.013230553      1.243019344
H      -0.051249400      0.709284318     -0.637198379
H       0.386260324     -1.162657480      1.609980127
H       0.134877277      1.030254119      1.298306951
H       0.138854288     -1.121275413     -0.154102247
           6
  t=        49.50000    1    1
C       0.032426024      0.018718654      0.164974394
N      -0.070725575      0.022374139      1.237447664
H      -0.091012106      0.717578121     -0.586043934
H       0.333741950     -1.145817622      1.541009564
H       0.156823531      1.012871394      1.314029299
H       0.196898411     -1.118433355     -0.154890377
           6
  t=        50.00000    1    1
C       0.032317597      0.005155310      0.166013646
N      -0.069377844      0.031288004      1.236124068
H      -0.130313573      0.730709932     -0.536973893
H       0.277848319     -1.116002249      1.476710901
H       0.177974319      0.996982471      1.340963035
H       0.253506281     -1.107848596     -0.160579841
           6
  t=        50.50000    1    1
C       0.032568685     -0.010256725      0.161279305
N      -0.067972028      0.039731531      1.239135529
H      -0.168978095      0.749108815     -0.491618498
H       0.219236679     -1.073024522      1.418919216
H       0.198258919      0.984053379      1.378576298
H       0.307973670     -1.090106018     -0.171228768
           6
  t=        51.00000    1    1
C       0.033223432     -0.027275971      0.151005034
N      -0.066590784      0.047407529      1.246276461
H      -0.206805068      0.772725229     -0.451071072
H       0.158802712     -1.015869795      1.369596103
H       0.217955164      0.975132359      1.426209190
H       0.359549292     -1.065964906     -0.186971240
           6
  t=        51.50000    1    1
C       0.034166930     -0.045363042      0.135990157
N      -0.065163269      0.054525950      1.256743258
H      -0.243439239      0.800661375     -0.415950143
H       0.097988456     -0.950391523      1.331190256
H       0.235887949      0.969540114      1.482854460
H       0.407994867     -1.037334300     -0.206982014
           6
  t=        52.00000    1    1
C       0.035270606     -0.063830271      0.117187863
N      -0.063724170      0.061316906      1.269594559
H      -0.278233503      0.830968863     -0.386228847
H       0.038625878     -0.883153346      1.306365996
H       0.251704431      0.966429096      1.547220832
H       0.453196976     -1.006239772     -0.230930859
           6
  t=        52.50000    1    1
C       0.036378521     -0.081910660      0.095586188
N      -0.062285516      0.068280108      1.283895446
H      -0.310393433      0.861247435     -0.361713245
H      -0.017723153     -0.824013860      1.297425326
H       0.264859596      0.964386881      1.617756061
H       0.495368244     -0.975085705     -0.258535762
           6
  t=        53.00000    1    1
C       0.037333466     -0.098873711      0.072111377
N      -0.060796771      0.076101822      1.298851254
H      -0.339096143      0.889105876     -0.342237405
H      -0.070521608     -0.784728977      1.305800354
H       0.274671317      0.961821236      1.692699938
H       0.535000561     -0.946365908     -0.289621830
           6
  t=        53.50000    1    1
C       0.037993790     -0.114118748      0.047583021
N      -0.059119459      0.085296824      1.313856933
H      -0.363589995      0.912483024     -0.327767851
H      -0.120710655     -0.773965285      1.331877632
H       0.280442400      0.957319791      1.770188169
H       0.572743224     -0.922244871     -0.324096759
           6
  t=        54.00000    1    1
C       0.038251766     -0.127233901      0.022692100
N      -0.057095886      0.095776582      1.328487514
H      -0.383289384      0.929795028     -0.318404785
H      -0.169792422     -0.791439797      1.375124058
H       0.281609394      0.949868051      1.848373109
H       0.609167870     -0.904081214     -0.361802326
           6
  t=        54.50000    1    1
C       0.038052971     -0.138014345     -0.002015662
N      -0.054663996      0.106861905      1.342495089
H      -0.397836742      0.939949898     -0.314278769
H      -0.218227941     -0.828213393      1.433935285
H       0.277840367      0.938883204      1.925523716
H       0.644495650     -0.892141131     -0.402325882
           6
  t=        55.00000    1    1
C       0.037401309     -0.146431528     -0.026146713
N      -0.051875146      0.117714538      1.355805779
H      -0.407080593      0.942282520     -0.315463276
H      -0.265124031     -0.872806870      1.505543979
H       0.269031275      0.924136840      2.000066446
H       0.678453028     -0.885703271     -0.444912550
           6
  t=        55.50000    1    1
C       0.036348020     -0.152581258     -0.049448798
N      -0.048830451      0.127675074      1.368477801
H      -0.411026964      0.936484504     -0.321951466
H      -0.309051709     -0.915999460      1.586488794
H       0.255261849      0.905661159      2.070592160
H       0.710332156     -0.883409416     -0.488511105
           6
  t=        56.00000    1    1
C       0.034974173     -0.156639318     -0.071786266
N      -0.045628412      0.136341346      1.380642251
H      -0.409822504      0.922581071     -0.333655991
H      -0.348747513     -0.951971131      1.673256874
H       0.236760143      0.883677827      2.135873572
H       0.739191502     -0.883645607     -0.531905436
           6
  t=        56.50000    1    1
C       0.033375660     -0.158831988     -0.093108636
N      -0.042347438      0.143515115      1.392456191
H      -0.403773584      0.900965271     -0.350415343
H      -0.383348584     -0.977606054      1.762688143
H       0.213875113      0.858550790      2.194891155
H       0.764073294     -0.884836006     -0.573860808
           6
  t=        57.00000    1    1
C       0.031655735     -0.159421784     -0.113418845
N      -0.039048182      0.149126991      1.404074027
H      -0.393390687      0.872490506     -0.372012646
H      -0.412357894     -0.991509909      1.852104774
H       0.187053470      0.830762050      2.246854632
H       0.784157572     -0.885620434     -0.613236351
           6
  t=        57.50000    1    1
C       0.029924942     -0.158706776     -0.132745383
N      -0.035781746      0.153177888      1.415633601
H      -0.379445520      0.838615445     -0.398213262
H      -0.435526502     -0.993267300      1.939266943
H       0.156819149      0.800910352      2.291209709
H       0.798836966     -0.884935392     -0.649048623
           6
  t=        58.00000    1    1
C       0.028305128     -0.157028650     -0.151119040
N      -0.032596533      0.155702899      1.427250554
H      -0.363023872      0.801568188     -0.428830717
H      -0.452745217     -0.983007449      2.022264488
H       0.123752249      0.769726951      2.327636778
H       0.807729693     -0.882030166     -0.680494454
           6
  t=        58.50000    1    1
C       0.026931137     -0.154777627     -0.168552919
N      -0.029540224      0.156752424      1.439013702
H      -0.345540012      0.764434899     -0.463822553
H      -0.463980395     -0.961203319      2.099432829
H       0.088458677      0.738091489      2.356057802
H       0.810667416     -0.876451587     -0.706951714
           6
  t=        59.00000    1    1
C       0.025941881     -0.152375563     -0.185028620
N      -0.026657754      0.156382052      1.450980190
H      -0.328652218      0.730992460     -0.503374392
H      -0.469249420     -0.928589805      2.169313073
H       0.051536526      0.707043415      2.376659570
H       0.807698033     -0.868030518     -0.727975763
           6
  t=        59.50000    1    1
C       0.025454730     -0.150221237     -0.200497563
N      -0.023987976      0.154646552      1.463173390
H      -0.314011203      0.705100827     -0.547860850
H      -0.468615606     -0.886130757      2.230631566
H       0.013546761      0.677793990      2.389922382
H       0.799116944     -0.856887074     -0.743301808
           6
  t=        60.00000    1    1
C       0.025526402     -0.148601689     -0.214904919
N      -0.021560215      0.151597311      1.475584227
H      -0.302855206      0.689686144     -0.597568325
H      -0.462190197     -0.835018299      2.282287521
H      -0.025016124      0.651741017      2.396633830
H       0.785511262     -0.843449370     -0.752856982
           6
  t=        60.50000    1    1
C       0.026116286     -0.147606914     -0.228229637
N      -0.019390576      0.147283579      1.488175591
H      -0.295632284      0.685758419     -0.652231346
H      -0.450136853     -0.776702173      2.323358570
H      -0.063761383      0.630474154      2.397861714
H       0.767809259     -0.828480064     -0.756787220
           6
  t=        61.00000    1    1
C       0.027074980     -0.147104462     -0.240512173
N      -0.017478439      0.141757770      1.500888612
H      -0.291910269      0.692131470     -0.710687048
H      -0.432681586     -0.712940088      2.353138458
H      -0.102440110      0.615752949      2.394855919
H       0.747326191     -0.813100092     -0.755499371
           6
  t=        61.50000    1    1
C       0.028165368     -0.146792863     -0.251845888
N      -0.015804054      0.135086000      1.513650824
H      -0.290643635      0.706057054     -0.770947374
H      -0.410128591     -0.645867210      2.371225495
H      -0.140970551      0.609436446      2.388855590
H       0.725787829     -0.798793338     -0.749700456
           6
  t=        62.00000    1    1
C       0.029101810     -0.146293752     -0.262339472
N      -0.014328089      0.127365118      1.526383576
H      -0.290583138      0.724264154     -0.830634980
H      -0.382888595     -0.578085483      2.377689263
H      -0.179430475      0.613346841      2.380805596
H       0.705288016     -0.787359773     -0.740395269
           6
  t=        62.50000    1    1
C       0.029591781     -0.145233366     -0.272082607
N      -0.012993182      0.118747285      1.539001660
H      -0.290586482      0.743769042     -0.887463338
H      -0.351530897     -0.512765011      2.373361557
H      -0.218001521      0.629042255      2.371043582
H       0.688121426     -0.780768225     -0.728788096
           6
  t=        63.00000    1    1
C       0.029377874     -0.143298937     -0.281138003
N      -0.011726102      0.109471388      1.551392885
H      -0.289757224      0.762234281     -0.939528816
H      -0.316871576     -0.453726237      2.360305295
H      -0.256869552      0.657477771      2.359080481
H       0.676440962     -0.780859133     -0.716050874
           6
  t=        63.50000    1    1
C       0.028281942     -0.140280065     -0.289558699
N      -0.010439667      0.099894835      1.563369749
H      -0.287465422      0.778002608     -0.985394216
H      -0.280093671     -0.405431901      2.342445185
H      -0.296096797      0.698578634      2.343607633
H       0.671771785     -0.788908900     -0.703000124
           6
  t=        64.00000    1    1
C       0.026241974     -0.136099284     -0.297411735
N      -0.009039790      0.090505836      1.574612509
H      -0.283316587      0.789992348     -1.024047366
H      -0.242803291     -0.372759868      2.326049702
H      -0.335484349      0.750875329      2.322786315
H       0.674557674     -0.805194206     -0.689836904
           6
  t=        64.50000    1    1
C       0.023322666     -0.130821203     -0.304786593
N      -0.007454802      0.081876909      1.584678137
H      -0.277106007      0.797573741     -1.054821639
H      -0.206735918     -0.360272758      2.319119541
H      -0.374467407      0.811450402      2.294740072
H       0.683998484     -0.828790686     -0.676131082
           6
  t=        65.00000    1    1
C       0.019690426     -0.124631207     -0.311780346
N      -0.005696099      0.074523399      1.593169079
H      -0.268767151      0.800470982     -1.077331383
H      -0.172909368     -0.370634107      2.328525546
H      -0.412119142      0.876331794      2.258091028
H       0.698295633     -0.857739982     -0.661081649
           6
  t=        65.50000    1    1
C       0.015564840     -0.117793298     -0.318467225
N      -0.003899631      0.068712971      1.599986554
H      -0.258301398      0.798699643     -1.091443605
H      -0.140892785     -0.402663471      2.356023336
H      -0.447305299      0.941176515      2.212413698
H       0.715159724     -0.889470711     -0.643895394
           6
  t=        66.00000    1    1
C       0.011171415     -0.110600328     -0.324864815
N      -0.002270190      0.064371112      1.605363606
H      -0.245700117      0.792527332     -1.097274201
H      -0.109275212     -0.450918155      2.397378872
H      -0.478992691      1.002075061      2.158530179
H       0.732298385     -0.921261455     -0.624073106
           6
  t=        66.50000    1    1
C       0.006720984     -0.103317006     -0.330952031
N      -0.000984020      0.061200253      1.609738710
H      -0.231084603      0.782457581     -1.095144457
H      -0.076707575     -0.508200155      2.445067732
H      -0.506446426      1.056277839      2.097698917
H       0.747687376     -0.950777758     -0.601370879
           6
  t=        67.00000    1    1
C       0.002400096     -0.096191050     -0.336696682
N      -0.000151687      0.058940463      1.613568787
H      -0.214797896      0.769313823     -1.085627117
H      -0.042627619     -0.568398438      2.491904191
H      -0.528966055      1.101652772      2.030923429
H       0.759722073     -0.976260908     -0.575765685
           6
  t=        67.50000    4    1
C      -0.001635615     -0.089469430     -0.342016801
N       0.000184185      0.057411686      1.617122681
H      -0.197260975      0.754295398     -1.069667435
H      -0.007243125     -0.626957085      2.533057219
H      -0.546016345      1.136561893      1.959521675
H       0.767235127     -0.996385812     -0.547510602
           6
  t=        68.00000    4    1
C      -0.005247180     -0.083475748     -0.347048601
N      -0.000008558      0.056530779      1.620731941
H      -0.179033015      0.739180620     -1.048678622
H       0.028837426     -0.680690874      2.565668293
H      -0.556936743      1.159846115      1.885260481
H       0.769525745     -1.009948607     -0.517085481
           6
  t=        68.50000    4    1
C      -0.008341818     -0.078397509     -0.351330378
N      -0.000673548      0.056184158      1.624153149
H      -0.160548826      0.725994290     -1.024485270
H       0.064928123     -0.727563226      2.588523422
H      -0.561942775      1.170941221      1.809607990
H       0.766042195     -1.016635724     -0.485035196
           6
  t=        69.00000    4    1
C      -0.010839914     -0.074500477     -0.354638506
N      -0.001775774      0.056313422      1.627314712
H      -0.142321163      0.717305462     -0.999294408
H       0.100323316     -0.766188436      2.601106318
H      -0.561060257      1.169605192      1.734269534
H       0.756594340     -1.016184020     -0.452009690
           6
  t=        69.50000    4    1
C      -0.012692143     -0.072029112     -0.356741164
N      -0.003273208      0.056863823      1.630112934
H      -0.124773320      0.715788533     -0.975368777
H       0.134367550     -0.795628083      2.603360685
H      -0.554458193      1.155956627      1.660938834
H       0.741258637     -1.008653488     -0.418703132
           6
  t=        70.00000    4    1
C      -0.013889806     -0.071152615     -0.357441780
N      -0.005117542      0.057770932      1.632429458
H      -0.108142688      0.723628384     -0.954525709
H       0.166470370     -0.815226435      2.595478411
H      -0.542455198      1.130493227      1.591262489
H       0.720406778     -0.994472608     -0.385832707
           6
  t=        70.50000    4    1
C      -0.014474972     -0.071897262     -0.356621936
N      -0.007253143      0.058947777      1.634141344
H      -0.092426092      0.741811414     -0.937624225
H       0.196112318     -0.824505524      2.577783482
H      -0.525546383      1.094165448      1.526797667
H       0.694778056     -0.974534910     -0.354122365
           6
  t=        71.00000    4    1
C      -0.014546172     -0.074098315     -0.354252700
N      -0.009615974      0.060270153      1.635124194
H      -0.077410836      0.769686346     -0.924367963
H       0.222857705     -0.823097566      2.550680950
H      -0.504448718      1.048522519      1.468957861
H       0.665595910     -0.950341893     -0.324303084
           6
  t=        71.50000    4    1
C      -0.014260933     -0.077403917     -0.350340769
N      -0.012137802      0.061557229      1.635236855
H      -0.062755854      0.805146510     -0.913637425
H       0.246393784     -0.810675496      2.514673774
H      -0.480147647      0.995959080      1.418990875
H       0.634745051     -0.924185571     -0.297204157
           6
  t=        72.00000    4    1
C      -0.013850883     -0.081360236     -0.344684817
N      -0.014787379      0.062537386      1.634191153
H      -0.047908500      0.845624422     -0.904518748
H       0.266655050     -0.786641677      2.470548991
H      -0.453794893      0.940138477      1.378465184
H       0.605213814     -0.899389149     -0.274488097
           6
  t=        72.50000    4    1
C      -0.013537112     -0.085261786     -0.337577676
N      -0.017096647      0.063012691      1.632051301
H      -0.033208859      0.886911035     -0.894531703
H       0.281898126     -0.752481250      2.418629263
H      -0.429326898      0.884948950      1.345958314
H       0.579151263     -0.879796668     -0.254940851
           6
  t=        73.00000    4    1
C      -0.013534542     -0.088545411     -0.329169569
N      -0.018897844      0.062623306      1.628874502
H      -0.018704559      0.926071261     -0.882333096
H       0.292368725     -0.709291131      2.360071685
H      -0.409503562      0.836560080      1.319868231
H       0.559347266     -0.869251357     -0.238466786
           6
  t=        73.50000    4    1
C      -0.014000927     -0.090768592     -0.319572434
N      -0.020032124      0.061054063      1.624704927
H      -0.004494660      0.960790973     -0.867024546
H       0.298741941     -0.659198991      2.296980728
H      -0.397353009      0.801554482      1.297785513
H       0.547925243     -0.870783989     -0.224940216
           6
  t=        74.00000    4    1
C      -0.014969190     -0.091710449     -0.308850109
N      -0.020456882      0.058238145      1.619461324
H       0.009282457      0.989408263     -0.848082569
H       0.302591549     -0.606151020      2.233073699
H      -0.395162713      0.784911492      1.277391600
H       0.545537293     -0.885467406     -0.214394328
           6
  t=        74.50000    4    1
C      -0.016326156     -0.091404184     -0.297013443
N      -0.020373741      0.054574715      1.612781511
H       0.022463409      1.010822859     -0.825271878
H       0.307045410     -0.556766373      2.174430768
H      -0.403366153      0.787841090      1.257820339
H       0.551106282     -0.911942952     -0.207116965
           6
  t=        75.00000    4    1
C      -0.017853716     -0.090079348     -0.284028656
N      -0.020274590      0.050944617      1.603981777
H       0.034869823      1.024375034     -0.798576574
H       0.317180262     -0.520233636      2.129417497
H      -0.420302967      0.807444327      1.240233012
H       0.562310986     -0.946968865     -0.203553365
           6
  t=        75.50000    4    1
C      -0.019300175     -0.088056835     -0.269832323
N      -0.020781350      0.048342975      1.592311664
H       0.046317073      1.029746806     -0.768161241
H       0.338685372     -0.505094153      2.105880683
H      -0.443106998      0.838567958      1.227029300
H       0.576424883     -0.986538372     -0.204113488
           6
  t=        76.00000    4    1
C      -0.020437238     -0.085662871     -0.254342462
N      -0.022288107      0.047287535      1.577424770
H       0.056626482      1.026921296     -0.734359254
H       0.374000431     -0.513239250      2.105796231
H      -0.468814688      0.875998419      1.220653660
H       0.590980715     -1.026839117     -0.209047434
           6
  t=        76.50000    1    1
C      -0.021087944     -0.083192286     -0.237456151
N      -0.024757352      0.047614825      1.559540008
H       0.065647702      1.016203088     -0.697679361
H       0.419998530     -0.538208594      2.123621774
H      -0.494894091      0.915606399      1.222990153
H       0.604095601     -1.064724899     -0.218455272
           6
  t=        77.00000    1    1
C      -0.021201778     -0.080851291     -0.219051973
N      -0.028013148      0.048871689      1.538920588
H       0.074625795      0.997471962     -0.656669405
H       0.473479797     -0.571326337      2.152008754
H      -0.521142667      0.956144914      1.234943816
H       0.614475698     -1.098752759     -0.232448493
           6
  t=        77.50000    1    1
C      -0.020582032     -0.078895573     -0.199356663
N      -0.031581249      0.050644108      1.516472368
H       0.082113595      0.972327391     -0.613935321
H       0.525946010     -0.604215699      2.182641967
H      -0.544876083      0.993445278      1.256559844
H       0.620450665     -1.125933268     -0.250037744
           6
  t=        78.00000    1    1
C      -0.019162178     -0.077557728     -0.178215525
N      -0.035258036      0.052724209      1.492455950
H       0.087975999      0.942598080     -0.570634214
H       0.573524649     -0.632419705      2.210846247
H      -0.565047981      1.025740514      1.287798490
H       0.621360447     -1.145127409     -0.270813834
           6
  t=        78.50000    1    1
C      -0.016906669     -0.077080351     -0.155468079
N      -0.038933054      0.055024952      1.467033326
H       0.092127542      0.910815008     -0.528203189
H       0.613945417     -0.653715673      2.233905223
H      -0.580860805      1.051664466      1.328123853
H       0.616805308     -1.155624776     -0.294248966
           6
  t=        79.00000    1    1
C      -0.013805713     -0.077717647     -0.130958224
N      -0.042551330      0.057518818      1.440331300
H       0.094526838      0.880165011     -0.488341761
H       0.645955227     -0.667177078      2.250246190
H      -0.591694991      1.070137140      1.376562167
H       0.606579747     -1.157049588     -0.319717686
           6
  t=        79.50000    1    1
C      -0.009869896     -0.079712335     -0.104556456
N      -0.046084207      0.060196808      1.412488554
H       0.095137688      0.854180948     -0.452900927
H       0.668878323     -0.672564403      2.258899751
H      -0.597070643      1.080316694      1.431760614
H       0.590643707     -1.149317366     -0.346515672
           6
  t=        80.00000    1    1
C      -0.005123893     -0.083239135     -0.076200855
N      -0.049511190      0.063046210      1.383690999
H       0.093850216      0.836063551     -0.423633878
H       0.682353447     -0.669993791      2.259201569
H      -0.596638912      1.081592447      1.492050608
H       0.569128504     -1.132644994     -0.373877171
           6
  t=        80.50000    1    1
C       0.000395894     -0.088322542     -0.045954600
N      -0.052808374      0.066039944      1.354204664
H       0.090419922      0.827740823     -0.401843873
H       0.686195676     -0.659761214      2.250643286
H      -0.590210674      1.073593278      1.555514171
H       0.542375710     -1.107625477     -0.401016636
           6
  t=        81.00000    1    1
C       0.006652414     -0.094828405     -0.014099461
N      -0.055934484      0.069134937      1.324412320
H       0.084404794      0.829393563     -0.388052699
H       0.680300875     -0.642317817      2.232850300
H      -0.577832377      1.056344970      1.620147711
H       0.510845620     -1.075013103     -0.426997444
           6
  t=        81.50000    1    1
C       0.013581170     -0.102370735      0.018868568
N      -0.058841967      0.072270649      1.294848117
H       0.075223369      0.839048512     -0.381924374
H       0.664595575     -0.618158742      2.205457409
H      -0.559672083      1.030147762      1.683787498
H       0.475468445     -1.036394440     -0.451142639
           6
  t=        82.00000    1    1
C       0.021083393     -0.110448294      0.052194717
N      -0.061489869      0.075395803      1.266230125
H       0.062468618      0.853486363     -0.382475114
H       0.639117274     -0.587846627      2.168262600
H      -0.536042696      0.995624492      1.744387068
H       0.437533619     -0.993866082     -0.473177675
           6
  t=        82.50000    1    1
C       0.029048310     -0.118524337      0.084816702
N      -0.063842441      0.078494009      1.239513669
H       0.045749949      0.869086364     -0.388189405
H       0.603978793     -0.552275731      2.121146348
H      -0.507435628      0.953799333      1.799902701
H       0.398632588     -0.950100384     -0.493080025
           6
  t=        83.00000    1    1
C       0.037379717     -0.126187971      0.115409713
N      -0.065901893      0.081612657      1.215862292
H       0.025001338      0.882769847     -0.397532690
H       0.559570035     -0.512607914      2.064368415
H      -0.474576869      0.906099344      1.848642127
H       0.360343614     -0.907834785     -0.511344132
           6
  t=        83.50000    1    1
C       0.046026292     -0.133212938      0.142419564
N      -0.067732445      0.084888265      1.196588965
H       0.000401721      0.892310809     -0.409118417
H       0.506775542     -0.470524489      1.998868437
H      -0.438422825      0.854371485      1.889332757
H       0.324063032     -0.869599759     -0.528761051
           6
  t=        84.00000    1    1
C       0.054994664     -0.139550872      0.164190173
N      -0.069486201      0.088558703      1.182982620
H      -0.027705042      0.896237075     -0.421817605
H       0.447352681     -0.428667789      1.926886763
H      -0.400151975      0.800923511      1.921254577
H       0.290902568     -0.837469488     -0.546170262
           6
  t=        84.50000    1    1
C       0.064329712     -0.145247184      0.179183234
N      -0.071421461      0.092956015      1.176003323
H      -0.058952730      0.893511509     -0.434739494
H       0.384441154     -0.391456226      1.853052275
H      -0.361086062      0.748644809      1.944422886
H       0.261732541     -0.812950622     -0.564129895
           6
  t=        85.00000    1    1
C       0.074060006     -0.150356688      0.186365372
N      -0.073928161      0.098522238      1.175846299
H      -0.092693659      0.883529569     -0.447211508
H       0.323591101     -0.366116350      1.785682707
H      -0.322830756      0.700834698      1.959755804
H       0.237038554     -0.797000608     -0.582956654
           6
  t=        85.50000    1    1
C       0.084146727     -0.154879207      0.185535915
N      -0.077520454      0.105823646      1.181602571
H      -0.127949447      0.866326310     -0.458839533
H       0.273111223     -0.363590883      1.737418917
H      -0.287134375      0.660962996      1.969348906
H       0.216887888     -0.790051649     -0.602762060
           6
  t=        86.00000    1    1
C       0.094454901     -0.158677605      0.177248270
N      -0.082571942      0.115341472      1.191668353
H      -0.163711018      0.842234170     -0.469374801
H       0.240190425     -0.395878612      1.720248496
H      -0.255362632      0.632480702      1.976373929
H       0.201246302     -0.792207682     -0.623260016
           6
  t=        86.50000    1    1
C       0.104776808     -0.161551785      0.162659648
N      -0.088880532      0.126832440      1.204755386
H      -0.198742865      0.812025691     -0.478801079
H       0.224526698     -0.465698334      1.734145970
H      -0.228443618      0.618110573      1.984565730
H       0.189773760     -0.803247608     -0.644055284
           6
  t=        87.00000    1    1
C       0.114863380     -0.163268210      0.143148772
N      -0.095737482      0.139095138      1.220250457
H      -0.231883559      0.776626876     -0.487240920
H       0.218618327     -0.562152150      1.767158604
H      -0.206538932      0.619509987      1.997430520
H       0.182090235     -0.822740518     -0.664474816
           6
  t=        87.50000    1    1
C       0.124461261     -0.163633919      0.120078132
N      -0.102483928      0.150742971      1.237639807
H      -0.262234593      0.737190860     -0.495007166
H       0.215158739     -0.670267249      1.807292027
H      -0.189074008      0.636866282      2.017225371
H       0.177891420     -0.850031406     -0.683553080
           6
  t=        88.00000    1    1
C       0.133355483     -0.162562941      0.094658388
N      -0.108738853      0.160820330      1.256339255
H      -0.289234648      0.695176983     -0.502651744
H       0.210108439     -0.778719858      1.847580546
H      -0.175046577      0.668719465      2.044022670
H       0.176918801     -0.884189492     -0.700143145
           6
  t=        88.50000    1    1
C       0.141398603     -0.160102310      0.067884419
N      -0.114331922      0.168865724      1.275848955
H      -0.312741312      0.652363401     -0.510987480
H       0.201848018     -0.880696284      1.884855764
H      -0.163370002      0.712238487      2.075680906
H       0.178951634     -0.924003428     -0.713023071
           6
  t=        89.00000    1    1
C       0.148524586     -0.156426672      0.040538322
N      -0.119204290      0.174762810      1.295826030
H      -0.333096589      0.610815894     -0.521080455
H       0.189982435     -0.972471975      1.917874886
H      -0.153139924      0.763864059      2.108777936
H       0.183791267     -0.968008247     -0.721010112
           6
  t=        89.50000    1    1
C       0.154749013     -0.151809926      0.013224315
N      -0.123348905      0.178587087      1.316051877
H      -0.351135240      0.572768256     -0.534183846
H       0.174645625     -1.052119680      1.946247027
H      -0.143738725      0.819988238      2.139769598
H       0.191237388     -1.014544808     -0.723072997
           6
  t=        90.00000    1    1
C       0.160154861     -0.146579737     -0.013595794
N      -0.126782677      0.180500633      1.336378173
H      -0.368071279      0.540367490     -0.551577080
H       0.156166872     -1.118680139      1.969941091
H      -0.134809334      0.877386152      2.165737335
H       0.201064634     -1.061845025     -0.718420468
           6
  t=        90.50000    1    1
C       0.164862713     -0.141062318     -0.039581591
N      -0.129534775      0.180692460      1.356691500
H      -0.385219406      0.515302804     -0.574304678
H       0.134924077     -1.171679721      1.989074101
H      -0.126181326      0.933373468      2.184633411
H       0.213008887     -1.108129417     -0.706554681
           6
  t=        91.00000    1    1
C       0.168990298     -0.135530831     -0.064506971
N      -0.131641179      0.179349419      1.376897423
H      -0.403596225      0.498432076     -0.602877845
H       0.111287132     -1.210867268      2.003819242
H      -0.117804402      0.985796571      2.195224678
H       0.226764725     -1.151697104     -0.687284532
           6
  t=        91.50000    1    1
C       0.172616073     -0.130173854     -0.088253805
N      -0.133141652      0.176643830      1.396914088
H      -0.423567364      0.489593111     -0.637069943
H       0.085599901     -1.236075557      2.014363997
H      -0.109699635      1.032952611      2.196930074
H       0.241993261     -1.190999180     -0.660712338
           6
  t=        92.00000    1    1
C       0.175763111     -0.125093533     -0.110794927
N      -0.134077651      0.172729323      1.416668568
H      -0.444726681      0.487706337     -0.675921728
H       0.058179984     -1.247148969      2.020891674
H      -0.101929250      1.073499041      2.189661898
H       0.258334281     -1.224687490     -0.627203112
           6
  t=        92.50000    1    1
C       0.178407707     -0.120327240     -0.132164420
N      -0.134490810      0.167740384      1.436092747
H      -0.466054903      0.491106218     -0.717954218
H       0.029326306     -1.243909547      2.023577443
H      -0.094580334      1.106380048      2.173709873
H       0.275417410     -1.251642231     -0.587348498
           6
  t=        93.00000    1    1
C       0.180502273     -0.115876569     -0.152423153
N      -0.134421672      0.161794217      1.455117199
H      -0.486233156      0.497922929     -0.761471868
H      -0.000669214     -1.226156526      2.022599722
H      -0.087760306      1.130778274      2.149675432
H       0.292869208     -1.270986525     -0.541934505
           6
  t=        93.50000    1    1
C       0.181997322     -0.111730809     -0.171629376
N      -0.133908463      0.154996841      1.473662196
H      -0.503936204      0.506367742     -0.804821841
H      -0.031505728     -1.193716488      2.018171821
H      -0.081603251      1.146085462      2.118451463
H       0.310318038     -1.282097362     -0.491918812
           6
  t=        94.00000    1    1
C       0.182854574     -0.107881193     -0.189826811
N      -0.132988723      0.147451561      1.491636829
H      -0.518012701      0.514905298     -0.846526074
H      -0.062856024     -1.146524344      2.010548750
H      -0.076268443      1.151895850      2.081184011
H       0.327422005     -1.284638476     -0.438396822
           6
  t=        94.50000    1    1
C       0.183057796     -0.104315867     -0.207063937
N      -0.131709618      0.139235129      1.508967331
H      -0.527599818      0.522358782     -0.885317614
H      -0.094379168     -1.084546532      1.999938671
H      -0.071862096      1.148168234      2.039120218
H       0.343932164     -1.278632974     -0.382488659
           6
  t=        95.00000    1    1
C       0.182614969     -0.101006992     -0.223383703
N      -0.130128606      0.130392442      1.525574928
H      -0.532163792      0.527865041     -0.920222277
H      -0.125714809     -1.007995361      1.986671082
H      -0.068405056      1.135411361      1.993665260
H       0.359678596     -1.264469421     -0.325297241
           6
  t=        95.50000    1    1
C       0.181551313     -0.097916928     -0.238806257
N      -0.128308289      0.120996109      1.541335654
H      -0.531456986      0.530823310     -0.950563535
H      -0.156464078     -0.918091046      1.971503929
H      -0.065874339      1.114731062      1.946461230
H       0.374561302     -1.242889701     -0.267936817
           6
  t=        96.00000    1    1
C       0.179905357     -0.095001313     -0.253335092
N      -0.126309366      0.111234354      1.556050673
H      -0.525481344      0.530878296     -0.975920620
H      -0.186289764     -0.818346184      1.956100928
H      -0.064213118      1.087958800      1.899321446
H       0.388572831     -1.215000837     -0.211500883
           6
  t=        96.50000    4    1
C       0.177727603     -0.092209159     -0.266968478
N      -0.124163950      0.101570181      1.569383666
H      -0.514473460      0.527913347     -0.996107604
H      -0.215313666     -0.716917834      1.944076125
H      -0.063323303      1.057798846      1.854102861
H       0.401818323     -1.182273655     -0.156994074
           6
  t=        97.00000    4    1
C       0.175189289     -0.089478871     -0.279958029
N      -0.121811859      0.092990919      1.580954313
H      -0.499536071      0.521639127     -1.011041685
H      -0.245843090     -0.629809716      1.942674629
H      -0.062900452      1.027909031      1.812674497
H       0.414528335     -1.146524608     -0.105333081
           6
  t=        97.50000    4    1
C       0.172256762     -0.086780087     -0.292047275
N      -0.118966798      0.086803668      1.589683735
H      -0.480723958      0.512842473     -1.021119544
H      -0.281734104     -0.578865276      1.963521124
H      -0.062918824      1.002604701      1.776365021
H       0.427010756     -1.109535264     -0.057137969
           6
  t=        98.00000    4    1
C       0.169025086     -0.084096598     -0.303230451
N      -0.115285360      0.083604990      1.594951748
H      -0.459009634      0.502182131     -1.026943237
H      -0.328508093     -0.576116809      2.015235318
H      -0.063174394      0.986554481      1.746221282
H       0.439652127     -1.073082528     -0.012924863
           6
  t=        98.50000    4    1
C       0.165606932     -0.081447701     -0.313481850
N      -0.110833218      0.082265118      1.597145655
H      -0.435613873      0.490593880     -1.029484076
H      -0.385922740     -0.608989641      2.092933609
H      -0.063528263      0.983684925      1.722814796
H       0.452862962     -1.038676272      0.026902236
           6
  t=        99.00000    4    1
C       0.162131923     -0.078896921     -0.322741001
N      -0.106062081      0.081181205      1.597264204
H      -0.411971981      0.479281091     -1.030096240
H      -0.448202720     -0.656109292      2.183646470
H      -0.063974939      0.995567602      1.706205985
H       0.467030536     -1.007439018      0.062009659
           6
  t=        99.50000    4    1
C       0.158748426     -0.076552700     -0.330892976
N      -0.101430623      0.079491201      1.596146808
H      -0.389701707      0.469675993     -1.030483320
H      -0.509533395     -0.703183313      2.276694141
H      -0.064455431      1.020458664      1.696055694
H       0.482505370     -0.980082779      0.092088341
           6
  t=       100.00000    4    1
C       0.155647941     -0.074538780     -0.337560103
N      -0.097445217      0.077108451      1.594078654
H      -0.370874466      0.463444478     -1.032965093
H      -0.565138599     -0.743574299      2.366314757
H      -0.063629884      1.053725153      1.692624318
H       0.499998431     -0.957600460      0.116500207
