           6
  t=         0.00000   12    3
C      -0.026465454     -0.009260950      0.021035143
N       0.000155308      0.003144667      1.310170907
H       1.020834329      0.073899603     -0.444551980
H       1.092951186     -0.043814254      1.979614046
H      -0.928354536      0.035226650      1.791908307
H      -0.872469237      0.001263453     -0.511041350
           6
  t=         0.50000   12    3
C      -0.019807786     -0.009421705      0.018573277
N       0.000551292      0.003579371      1.312988659
H       0.988702559      0.058959581     -0.436567735
H       1.066072107     -0.032481259      1.974433346
H      -0.914550020      0.019426164      1.781044954
H      -0.912036629      0.016544628     -0.512819076
           6
  t=         1.00000   12    3
C      -0.012342376     -0.009603088      0.013238789
N       0.001419352      0.004001234      1.318950011
H       0.952596867      0.043537684     -0.429396065
H       1.025845397     -0.020410178      1.961757999
H      -0.896653828      0.003327478      1.771202762
H      -0.954550971      0.032291831     -0.516785185
           6
  t=         1.50000    9    3
C      -0.004733196     -0.009806246      0.005176951
N       0.002884392      0.004389242      1.327796783
H       0.916122975      0.027972112     -0.424707792
H       0.973017276     -0.007698656      1.942068702
H      -0.876853733     -0.012800493      1.763492622
H      -0.996006125      0.048301211     -0.521002945
           6
  t=         2.00000    9    3
C       0.002154037     -0.010055864     -0.005372207
N       0.005209900      0.004792681      1.339183307
H       0.886541812      0.012541135     -0.422591142
H       0.910198160      0.005345946      1.915466160
H      -0.859724483     -0.029110623      1.757227688
H      -1.035051677      0.064363859     -0.522853158
           6
  t=         2.50000    9    3
C       0.007895152     -0.010357165     -0.017549373
N       0.008105020      0.005213840      1.352320302
H       0.866809019     -0.001081189     -0.428203014
H       0.840721995      0.017058472      1.885602213
H      -0.845919435     -0.044078611      1.755815893
H      -1.068232132      0.078976964     -0.523503827
           6
  t=         3.00000    9    3
C       0.012623989     -0.010807427     -0.029432203
N       0.010966910      0.005757993      1.365712066
H       0.861214914     -0.011601483     -0.446681813
H       0.772856538      0.025735355      1.856556617
H      -0.837680048     -0.057126260      1.760394022
H      -1.099081601      0.091668076     -0.525140304
           6
  t=         3.50000    9    3
C       0.016599558     -0.011387111     -0.040140531
N       0.012827268      0.006438819      1.378254369
H       0.870319616     -0.019891947     -0.479895556
H       0.719278480      0.032067228      1.835094044
H      -0.836018191     -0.069187114      1.771223183
H      -1.129455049      0.103129580     -0.528057781
           6
  t=         4.00000    9    3
C       0.020019010     -0.012061760     -0.049639811
N       0.012610029      0.007228079      1.389158620
H       0.891313432     -0.026511044     -0.526277677
H       0.694833108      0.036894987      1.830065342
H      -0.840847988     -0.080739162      1.787784964
H      -1.158870213      0.113539144     -0.531609621
           6
  t=         4.50000    9    3
C       0.023108185     -0.012804984     -0.058188832
N       0.009679884      0.008099838      1.398043750
H       0.919394572     -0.031656042     -0.582481939
H       0.708099865      0.040722402      1.846837846
H      -0.851085921     -0.091907823      1.809099027
H      -1.186050056      0.122761814     -0.535153001
           6
  t=         5.00000    9    3
C       0.026008640     -0.013583287     -0.066267777
N       0.004432281      0.009070882      1.405302163
H       0.949542923     -0.035434455     -0.644286059
H       0.753330067      0.043336036      1.882025441
H      -0.865040361     -0.102682904      1.833917821
H      -1.209097415      0.130476270     -0.538011302
           6
  t=         5.50000    8    2
C       0.028711841     -0.014337947     -0.074487511
N      -0.002091951      0.010172733      1.411819263
H       0.977700118     -0.038156066     -0.707408982
H       0.815939889      0.044307483      1.926966534
H      -0.880782031     -0.113125879      1.860857620
H      -1.225659431      0.136345011     -0.539448873
           6
  t=         6.00000    8    2
C       0.031472996     -0.015051621     -0.083392039
N      -0.009529599      0.011333288      1.418480587
H       1.002857925     -0.041332177     -0.773715465
H       0.887408472      0.045852064      1.976947207
H      -0.897142629     -0.124781346      1.890481278
H      -1.235460605      0.142003923     -0.539276475
           6
  t=         6.50000    8    2
C       0.034489950     -0.015744165     -0.091839325
N      -0.017120998      0.012360607      1.424781637
H       1.021190897     -0.045110994     -0.838233793
H       0.955787555      0.049354656      2.023628811
H      -0.910768341     -0.137138747      1.919862004
H      -1.238991835      0.148609099     -0.537788776
           6
  t=         7.00000    8    2
C       0.037888767     -0.016463825     -0.099845830
N      -0.024702496      0.013280788      1.430833577
H       1.031324693     -0.049055172     -0.899187650
H       1.017215898      0.054208759      2.064586470
H      -0.920072405     -0.149755557      1.948116668
H      -1.236379118      0.156099002     -0.534802605
           6
  t=         7.50000    8    2
C       0.041723520     -0.017245772     -0.107465652
N      -0.032246923      0.014113270      1.436624569
H       1.032420145     -0.052826644     -0.954972146
H       1.070310127      0.059992826      2.099144798
H      -0.923984434     -0.162312336      1.974832147
H      -1.227491684      0.164386366     -0.530025760
           6
  t=         8.00000    8    2
C       0.045978874     -0.018114202     -0.114772873
N      -0.039749066      0.014876941      1.442078607
H       1.024094760     -0.056173302     -1.004122667
H       1.114822340      0.066407113      2.127500359
H      -0.922037769     -0.174632928      1.999961332
H      -1.212055621      0.173368334     -0.523134145
           6
  t=         8.50000    8    2
C       0.050569350     -0.019085782     -0.121863581
N      -0.047162978      0.015593104      1.447144734
H       1.006483204     -0.058933550     -1.045382734
H       1.150799102      0.073254837      2.149984657
H      -0.914322922     -0.186685253      2.023459699
H      -1.189782272      0.182950473     -0.513819121
           6
  t=         9.00000    8    2
C       0.055372506     -0.020172424     -0.128841558
N      -0.054418544      0.016284433      1.451816020
H       0.980137689     -0.061021825     -1.077771956
H       1.178395982      0.080417909      2.166830353
H      -0.901260210     -0.198539925      2.045196608
H      -1.160475399      0.193062718     -0.501831095
           6
  t=         9.50000    8    2
C       0.060262363     -0.021383730     -0.135794895
N      -0.061439048      0.016974489      1.456095796
H       0.945863494     -0.062402549     -1.100573676
H       1.197868996      0.087828625      2.178242579
H      -0.883473654     -0.210347280      2.065118190
H      -1.124138194      0.203674487     -0.487035365
           6
  t=        10.00000    8    2
C       0.065125481     -0.022730033     -0.142781617
N      -0.068138054      0.017688975      1.459979909
H       0.904665927     -0.063078701     -1.113328375
H       1.209511812      0.095453873      2.184423764
H      -0.861775912     -0.222342910      2.083336357
H      -1.081107246      0.214823371     -0.469457233
           6
  t=        10.50000    8    2
C       0.069871024     -0.024226157     -0.149818388
N      -0.074415006      0.018456762      1.463453728
H       0.857782580     -0.063094629     -1.115881334
H       1.213595705      0.103287201      2.185556937
H      -0.837152764     -0.234856190      2.100137218
H      -1.032221206      0.226664910     -0.449318810
           6
  t=        11.00000    8    2
C       0.074441859     -0.025897480     -0.156865855
N      -0.080156049      0.019310205      1.466494211
H       0.806763593     -0.062546800     -1.108499566
H       1.210336545      0.111349244      2.181787923
H      -0.810710530     -0.248315196      2.115948718
H      -0.979041452      0.239555628     -0.427075297
           6
  t=        11.50000    8    2
C       0.078824198     -0.027788460     -0.163808881
N      -0.085239803      0.020284018      1.469075129
H       0.753593063     -0.061601392     -1.092075259
H       1.199878004      0.119689917      2.173214200
H      -0.783581800     -0.263235510      2.131268853
H      -0.924085495      0.254174424     -0.403436450
           6
  t=        12.00000    5    2
C       0.083047096     -0.029972724     -0.170431976
N      -0.089546866      0.021412281      1.471174910
H       0.700841133     -0.060515547     -1.068430570
H       1.182285637      0.128392305      2.159879879
H      -0.756797836     -0.280187158      2.146552360
H      -0.870962726      0.271668485     -0.379345049
           6
  t=        12.50000    5    2
C       0.087287300     -0.032442111     -0.176565773
N      -0.093062228      0.022755480      1.472879155
H       0.651489099     -0.059621863     -1.040419543
H       1.157860724      0.136678021      2.141422426
H      -0.731225094     -0.299190767      2.162185699
H      -0.824402308      0.292231841     -0.355176951
           6
  t=        13.00000    5    2
C       0.091403377     -0.035445400     -0.181566129
N      -0.095610260      0.024300815      1.474108193
H       0.609897940     -0.059438225     -1.013079136
H       1.126213457      0.145604553      2.118147473
H      -0.707243353     -0.321293420      2.177987344
H      -0.788751875      0.319512018     -0.332582015
           6
  t=        13.50000    5    2
C       0.095237309     -0.039094683     -0.184871218
N      -0.097135550      0.026051814      1.474900665
H       0.580450078     -0.060535196     -0.992487103
H       1.087226973      0.155366846      2.089986322
H      -0.684924566     -0.346858725      2.193485963
H      -0.767093442      0.355533859     -0.312168951
           6
  t=        14.00000    5    2
C       0.098451288     -0.043417159     -0.185960270
N      -0.097615789      0.027993253      1.475315547
H       0.566812361     -0.063496838     -0.984566662
H       1.040812827      0.166187839      2.056900433
H      -0.663993175     -0.376063989      2.207810479
H      -0.759568732      0.401371186     -0.294125058
           6
  t=        14.50000    5    2
C       0.100641105     -0.048311918     -0.184549638
N      -0.097067984      0.030086568      1.475421535
H       0.570474683     -0.068815247     -0.992576936
H       0.987064349      0.178320879      2.018964369
H      -0.643924170     -0.408856507      2.219790756
H      -0.763236844      0.456544359     -0.278427469
           6
  t=        15.00000    5    2
C       0.101524120     -0.053562468     -0.180724399
N      -0.095560938      0.032261442      1.475290778
H       0.589897324     -0.076847768     -1.015383828
H       0.926513088      0.192111726      1.976445566
H      -0.624088730     -0.444928398      2.228065377
H      -0.773397059      0.519156319     -0.265105753
           6
  t=        15.50000    5    2
C       0.101038903     -0.058889206     -0.174877443
N      -0.093238325      0.034406610      1.474995675
H       0.621099543     -0.087907157     -1.048302384
H       0.860503233      0.208178790      1.929897420
H      -0.603920163     -0.483772598      2.231157864
H      -0.785251877      0.586611149     -0.254249661
           6
  t=        16.00000    5    2
C       0.099298595     -0.064004731     -0.167504067
N      -0.090374778      0.036361757      1.474547836
H       0.659192459     -0.102313966     -1.085560084
H       0.792006608      0.227662958      1.880651290
H      -0.582943921     -0.524788102      2.227738534
H      -0.794890056      0.656292956     -0.245897268
           6
  t=        16.50000    5    2
C       0.096483370     -0.068651461     -0.159017816
N      -0.087482401      0.037892670      1.473791115
H       0.699731277     -0.120244228     -1.122164190
H       0.727127808      0.252550340      1.831667093
H      -0.560630908     -0.567239654      2.216966183
H      -0.799530475      0.725843626     -0.240066483
           6
  t=        17.00000    5    2
C       0.092773696     -0.072620876     -0.149694551
N      -0.085361420      0.038654888      1.472389943
H       0.739289488     -0.141644136     -1.154530769
H       0.675859077      0.286207075      1.787658368
H      -0.536349272     -0.610235270      2.198507640
H      -0.797400864      0.793254504     -0.236774467
           6
  t=        17.50000    5    2
C       0.088327136     -0.075750893     -0.139692185
N      -0.084890395      0.038209733      1.469957422
H       0.775446098     -0.166281944     -1.180359100
H       0.649253560      0.333268608      1.753507096
H      -0.509407076     -0.652803972      2.172463843
H      -0.787494392      0.856852676     -0.236048901
           6
  t=        18.00000    5    2
C       0.083274775     -0.077911421     -0.129088492
N      -0.086463207      0.036223273      1.466300102
H       0.806591019     -0.193804251     -1.198267233
H       0.651755977      0.396988187      1.731008401
H      -0.479157219     -0.694010298      2.139349029
H      -0.769380863      0.915186799     -0.237967223
           6
  t=        18.50000    5    2
C       0.077721034     -0.078993703     -0.117918215
N      -0.089649672      0.032754936      1.461514356
H       0.831798856     -0.223688831     -1.207424346
H       0.676779026      0.475310479      1.717651641
H      -0.445177670     -0.733038619      2.100103193
H      -0.743190067      0.966853717     -0.242714925
           6
  t=        19.00000    5    2
C       0.071731474     -0.078921717     -0.106226330
N      -0.093598794      0.028245761      1.455798447
H       0.850920413     -0.255011873     -1.207184314
H       0.712933050      0.561055942      1.709488411
H      -0.407596815     -0.769144610      2.056140919
H      -0.709859432      1.010331685     -0.250623563
           6
  t=        19.50000    5    2
C       0.065312423     -0.077704960     -0.094170962
N      -0.097520194      0.023235887      1.449298893
H       0.864689877     -0.286245533     -1.196716333
H       0.751459594      0.646020203      1.703860100
H      -0.367536454     -0.801638933      2.009417998
H      -0.671300025      1.044216103     -0.261974110
           6
  t=        20.00000    5    2
C       0.058467303     -0.075448477     -0.081995593
N      -0.100864160      0.018121170      1.442089131
H       0.873923944     -0.315825233     -1.175165799
H       0.787398482      0.724587088      1.699524656
H      -0.326571250     -0.830274332      1.962145709
H      -0.629472337      1.068061898     -0.276711664
           6
  t=        20.50000    5    2
C       0.051245805     -0.072246016     -0.069895648
N      -0.103336919      0.013132092      1.434179994
H       0.878953708     -0.342701815     -1.142071978
H       0.818300099      0.793791584      1.695910784
H      -0.285909270     -0.855381974      1.916373505
H      -0.585723267      1.082029938     -0.294598741
           6
  t=        21.00000    5    2
C       0.043716280     -0.068082848     -0.058038569
N      -0.104806032      0.008415724      1.425584557
H       0.879817574     -0.366576369     -1.097454791
H       0.842960833      0.852177422      1.692774437
H      -0.246313116     -0.877804716      1.873696793
H      -0.540778953      1.085901605     -0.315154756
           6
  t=        21.50000    5    2
C       0.035959930     -0.062912040     -0.046575665
N      -0.105240309      0.004052567      1.416341881
H       0.876487830     -0.387464943     -1.041592233
H       0.860940433      0.899146021      1.689966411
H      -0.208171605     -0.898402648      1.835264473
H      -0.495182860      1.079474286     -0.337842497
           6
  t=        22.00000    5    2
C       0.028072318     -0.056698584     -0.035651682
N      -0.104672967      0.000050668      1.406531395
H       0.868981523     -0.405438669     -0.974903425
H       0.872300294      0.934578261      1.687299894
H      -0.171626571     -0.917634055      1.801868887
H      -0.449547929      1.062867862     -0.362228548
           6
  t=        22.50000    5    2
C       0.020159777     -0.049405958     -0.025418084
N      -0.103183184     -0.003654450      1.396291525
H       0.857448191     -0.420707720     -0.898026734
H       0.877370676      0.958643247      1.684489339
H      -0.136632685     -0.935415889      1.773992712
H      -0.404565233      1.036501393     -0.387991549
           6
  t=        23.00000    5    2
C       0.012338878     -0.040994457     -0.016025246
N      -0.100892155     -0.007203582      1.385814942
H       0.842248949     -0.433690370     -0.811935722
H       0.876685586      0.971731784      1.681150370
H      -0.102995611     -0.951050626      1.751938966
H      -0.361028313      1.001188282     -0.414963114
           6
  t=        23.50000    5    2
C       0.004736454     -0.031437384     -0.007589536
N      -0.097966433     -0.010818129      1.375316416
H       0.824006376     -0.445016392     -0.718062560
H       0.871053297      0.974489775      1.676890569
H      -0.070409560     -0.963208282      1.736041169
H      -0.319869816      0.958340798     -0.443250708
           6
  t=        24.00000    5    2
C      -0.002515608     -0.020714093     -0.000148681
N      -0.094647991     -0.014835063      1.364987444
H       0.803608216     -0.455589640     -0.618486043
H       0.861827733      0.968058560      1.671499406
H      -0.038350635     -0.969839176      1.727003732
H      -0.282063637      0.910107918     -0.473480944
           6
  t=        24.50000    5    2
C      -0.009323177     -0.008771765      0.006447361
N      -0.091388944     -0.019815551      1.354818550
H       0.781950357     -0.466560177     -0.516369849
H       0.851987598      0.954862105      1.665821855
H      -0.005205558     -0.967849826      1.727034676
H      -0.247936575      0.859290415     -0.507197972
           6
  t=        25.00000    5    2
C      -0.016151873      0.003809495      0.012778532
N      -0.088119017     -0.025264239      1.344458482
H       0.763391639     -0.477953099     -0.415052023
H       0.841684593      0.934005662      1.661833268
H       0.029331628     -0.959882329      1.736798153
H      -0.217737504      0.809474819     -0.545728109
           6
  t=        25.50000    5    2
C      -0.023320601      0.016522216      0.019097795
N      -0.084536092     -0.030481909      1.334207611
H       0.753643917     -0.491376449     -0.316701378
H       0.828352213      0.902986760      1.658320193
H       0.063480098     -0.949384070      1.753744062
H      -0.193231556      0.764546223     -0.590324453
           6
  t=        26.00000    5    2
C      -0.030757264      0.029098492      0.025448497
N      -0.080637407     -0.035243777      1.324536174
H       0.755532153     -0.508471386     -0.222898527
H       0.810929795      0.861258245      1.653660105
H       0.096029715     -0.937080272      1.775666037
H      -0.175869695      0.727484835     -0.642627255
           6
  t=        26.50000    5    2
C      -0.038334069      0.041439414      0.031740990
N      -0.076492006     -0.039489392      1.315808463
H       0.769680495     -0.529422955     -0.134712435
H       0.789171078      0.809093337      1.646976891
H       0.126127294     -0.922884123      1.801146539
H      -0.165738909      0.698453448     -0.703268074
           6
  t=        27.00000    5    2
C      -0.045838239      0.053506889      0.037731606
N      -0.072168521     -0.043204942      1.308338703
H       0.794670720     -0.552736986     -0.052979148
H       0.763119827      0.747145862      1.637679173
H       0.152845590     -0.906608653      1.828938600
H      -0.162117404      0.675378744     -0.771037156
           6
  t=        27.50000    5    2
C      -0.052906283      0.065236258      0.042955240
N      -0.067794661     -0.046418649      1.302432426
H       0.827117437     -0.575900766      0.021368149
H       0.733568958      0.677000991      1.625854342
H       0.175443443     -0.888240847      1.857940305
H      -0.164225131      0.655311830     -0.842694040
           6
  t=        28.00000    5    2
C      -0.059169853      0.076562790      0.046963344
N      -0.063558667     -0.049201815      1.298327916
H       0.863603665     -0.596593271      0.086920048
H       0.702075414      0.601087712      1.612037134
H       0.193338546     -0.868043241      1.887159920
H      -0.171390129      0.635526683     -0.914342331
           6
  t=        28.50000    5    2
C      -0.064320036      0.087411766      0.049466812
N      -0.059757810     -0.051702461      1.296132426
H       0.901566763     -0.613105489      0.141944040
H       0.671695774      0.523095220      1.597325626
H       0.205979885     -0.846541809      1.915747266
H      -0.183103099      0.614097383     -0.982545294
           6
  t=        29.00000    5    2
C      -0.068088679      0.097672566      0.050340985
N      -0.056877482     -0.054163135      1.295788267
H       0.939161374     -0.624365313      0.184628514
H       0.647910526      0.448434361      1.583818667
H       0.212951621     -0.824516769      1.943011082
H      -0.199031967      0.590008364     -1.044613072
           6
  t=        29.50000    5    2
C      -0.070237838      0.107169471      0.049621495
N      -0.055602145     -0.056871260      1.297057816
H       0.974911365     -0.629916937      0.213194063
H       0.638660927      0.383924426      1.574820906
H       0.214162079     -0.803004032      1.968326600
H      -0.218873194      0.563106269     -1.098568779
           6
  t=        30.00000    5    2
C      -0.070599318      0.115641179      0.047453274
N      -0.056589716     -0.059988600      1.299599143
H       1.007308676     -0.630100511      0.226140718
H       0.651539145      0.335982837      1.574207898
H       0.210088575     -0.783411439      1.990882855
H      -0.242049572      0.534080536     -1.142951791
           6
  t=        30.50000    5    2
C      -0.069174828      0.122825336      0.043968206
N      -0.060006891     -0.063381884      1.303160799
H       1.034915929     -0.625999036      0.222942054
H       0.688444489      0.307625418      1.584334982
H       0.201574195     -0.767556501      2.009686338
H      -0.267529588      0.504087959     -1.176674175
           6
  t=        31.00000    5    2
C      -0.066105079      0.128597602      0.039245393
N      -0.065382128     -0.066685515      1.307701964
H       1.056856791     -0.618573028      0.204267342
H       0.743726263      0.297019243      1.604090641
H       0.189182440     -0.757093102      2.024117205
H      -0.294226098      0.473976621     -1.199048477
           6
  t=        31.50000    5    2
C      -0.061538546      0.132945488      0.033374684
N      -0.071971824     -0.069509834      1.313283073
H       1.072623913     -0.608292389      0.171361939
H       0.808168993      0.299955341      1.630194523
H       0.173239246     -0.753049378      2.033970202
H      -0.321306213      0.444188167     -1.209743987
           6
  t=        32.00000    5    2
C      -0.055587969      0.135900187      0.026474867
N      -0.079126766     -0.071578414      1.319927717
H       1.081756091     -0.595343184      0.125690083
H       0.873601522      0.312576001      1.659445376
H       0.154102634     -0.755875540      2.039169645
H      -0.348173610      0.415004417     -1.208690182
           6
  t=        32.50000    5    2
C      -0.048334056      0.137504710      0.018681474
N      -0.086406040     -0.072739679      1.327583742
H       1.083742371     -0.579801301      0.068844593
H       0.934489990      0.332120516      1.689581339
H       0.132246399     -0.765620773      2.039641663
H      -0.374422520      0.386692962     -1.196033236
           6
  t=        33.00000    5    2
C      -0.039835257      0.137802133      0.010134829
N      -0.093540090     -0.072929044      1.336142778
H       1.078049795     -0.561722958      0.002514163
H       0.987517104      0.356694377      1.719213711
H       0.108245131     -0.782064855      2.035294551
H      -0.399826620      0.359574043     -1.172146554
           6
  t=        33.50000    5    2
C      -0.030136941      0.136833354      0.000975682
N      -0.100366948     -0.072136057      1.345469027
H       1.064212818     -0.541210621     -0.071532493
H       1.030774352      0.384926657      1.747549821
H       0.082734282     -0.804776792      2.026020941
H      -0.424357553      0.334057871     -1.137687852
           6
  t=        34.00000    5    2
C      -0.019282367      0.134641148     -0.008646548
N      -0.106782829     -0.070387897      1.355417393
H       1.041973561     -0.518495644     -0.151457330
H       1.063156037      0.415742584      1.774158250
H       0.056364574     -0.833111179      2.011697640
H      -0.448229410      0.310673491     -1.093703662
           6
  t=        34.50000    5    2
C      -0.007339599      0.131284305     -0.018535421
N      -0.112701213     -0.067742273      1.365832971
H       1.011540580     -0.494152079     -0.235429768
H       1.083905844      0.448259986      1.798788974
H       0.029769379     -0.866187548      1.992172344
H      -0.471919512      0.290098492     -1.041808908
           6
  t=        35.00000    5    2
C       0.005624819      0.126663384     -0.028392972
N      -0.118198203     -0.064194599      1.376476288
H       0.974134942     -0.468182438     -0.321732138
H       1.093205239      0.480800308      1.821212975
H       0.004344539     -0.902613382      1.967716556
H      -0.496376506      0.273741726     -0.983984234
           6
  t=        35.50000    5    2
C       0.019544154      0.120829328     -0.037958474
N      -0.123229037     -0.059868972      1.387185983
H       0.930883965     -0.441411941     -0.408591327
H       1.091101770      0.512700239      1.841517246
H      -0.019331355     -0.940916307      1.938369365
H      -0.523181225      0.262737013     -0.922991257
           6
  t=        36.00000    5    2
C       0.034315323      0.113848659     -0.046875896
N      -0.127765563     -0.054897429      1.397772845
H       0.883922741     -0.414907033     -0.494695000
H       1.077835222      0.543138591      1.859662107
H      -0.040666411     -0.979388449      1.904365515
H      -0.554464169      0.258306647     -0.861947630
           6
  t=        36.50000    5    2
C       0.049781207      0.105801470     -0.054762124
N      -0.131781455     -0.049417891      1.408019028
H       0.836062345     -0.389775132     -0.579358491
H       1.053852986      0.571207209      1.875584010
H      -0.059133063     -1.016206595      1.866229087
H      -0.592506384      0.261605607     -0.803533384
           6
  t=        37.00000    5    2
C       0.065685964      0.096773413     -0.061282615
N      -0.135239891     -0.043556416      1.417674491
H       0.790398107     -0.366704100     -0.662592508
H       1.019830939      0.595818760      1.889190832
H      -0.074406540     -1.049558769      1.824845244
H      -0.638869200      0.273328808     -0.749040040
           6
  t=        37.50000    5    2
C       0.081641295      0.086863232     -0.066241212
N      -0.138060217     -0.037410869      1.426487742
H       0.749716277     -0.345441597     -0.744840949
H       0.976562816      0.615627783      1.900350069
H      -0.086674635     -1.077772879      1.781403987
H      -0.693442029      0.293081313     -0.697922486
           6
  t=        38.00000    5    2
C       0.097194278      0.076207849     -0.069656777
N      -0.140088592     -0.031046794      1.434306606
H       0.715708959     -0.324868408     -0.826433798
H       0.924500352      0.629180874      1.908840439
H      -0.096807933     -1.099462242      1.737012702
H      -0.754242778      0.319090987     -0.648397896
           6
  t=        38.50000    5    2
C       0.111978279      0.064950769     -0.071756850
N      -0.141120769     -0.024474036      1.441164919
H       0.688445563     -0.303670047     -0.907104482
H       0.863155609      0.635089328      1.914301543
H      -0.105885613     -1.113709517      1.692163741
H      -0.818246175      0.348942848     -0.598625628
           6
  t=        39.00000    5    2
C       0.125739333      0.053218627     -0.072859962
N      -0.140977086     -0.017640814      1.447171804
H       0.666599653     -0.280862048     -0.985865668
H       0.791596673      0.632060582      1.916799995
H      -0.114435748     -1.120180733      1.647104144
H      -0.882138191      0.380383696     -0.547630180
           6
  t=        39.50000    5    2
C       0.138301890      0.041260335     -0.073271394
N      -0.139672168     -0.010622019      1.452348721
H       0.648040407     -0.256623276     -1.061065924
H       0.710266254      0.619879110      1.917061364
H      -0.121998259     -1.118788084      1.602736439
H      -0.942397285      0.411796946     -0.495354312
           6
  t=        40.00000    5    2
C       0.149576239      0.029667568     -0.073459320
N      -0.137440789     -0.004052979      1.456673607
H       0.629851247     -0.235108911     -1.130205087
H       0.619954226      0.602144214      1.916313485
H      -0.126268378     -1.108967867      1.561152980
H      -0.994871359      0.444957294     -0.441737366
           6
  t=        40.50000    5    2
C       0.159452123      0.018745769     -0.073670156
N      -0.134457888      0.001696885      1.459991085
H       0.611097164     -0.216991372     -1.191342265
H       0.523558499      0.581908062      1.916350267
H      -0.127496280     -1.090972378      1.524028911
H      -1.037529669      0.479233235     -0.387096393
           6
  t=        41.00000    5    2
C       0.167872801      0.008597466     -0.073896064
N      -0.131174520      0.006458735      1.462005370
H       0.591518330     -0.201258164     -1.243493120
H       0.427708896      0.562450507      1.920508066
H      -0.125957499     -1.065987794      1.492189087
H      -1.069523916      0.512643770     -0.332560533
           6
  t=        41.50000    5    2
C       0.174835347     -0.000692973     -0.074138922
N      -0.128183507      0.009949684      1.462295385
H       0.571365144     -0.186716294     -1.285871334
H       0.341663734      0.549957410      1.934596606
H      -0.122900254     -1.035926493      1.465894306
H      -1.090842920      0.542648351     -0.279113650
           6
  t=        42.00000    5    2
C       0.180377827     -0.009024514     -0.074414286
N      -0.125976137      0.011757318      1.460333278
H       0.550955429     -0.172803834     -1.317823826
H       0.273211931      0.552536115      1.965944609
H      -0.119672888     -1.003226225      1.445419943
H      -1.101872186      0.567542724     -0.227493556
           6
  t=        42.50000    5    2
C       0.184547478     -0.016295342     -0.074727156
N      -0.124598833      0.011818244      1.455855520
H       0.530567748     -0.159412281     -1.338921956
H       0.223628518      0.573800483      2.018164803
H      -0.117271108     -0.971046983      1.431110318
H      -1.103087023      0.586433015     -0.178364837
           6
  t=        43.00000    5    2
C       0.187388442     -0.022417783     -0.075078539
N      -0.123653468      0.010721509      1.449189945
H       0.510460128     -0.146626979     -1.348938364
H       0.187777862      0.609021940      2.086849934
H      -0.116379231     -0.943372864      1.423240923
H      -1.094982802      0.598888880     -0.132366158
           6
  t=        43.50000    5    2
C       0.188939289     -0.027324483     -0.075467966
N      -0.122683159      0.009364816      1.441016974
H       0.490883072     -0.134608709     -1.347807321
H       0.159553921      0.649616022      2.162919025
H      -0.117444576     -0.924563008      1.421972642
H      -1.078064016      0.604739753     -0.090102725
           6
  t=        44.00000    5    2
C       0.189234258     -0.030970802     -0.075886417
N      -0.121400457      0.008491309      1.431964584
H       0.472097938     -0.123544475     -1.335615296
H       0.135114570      0.688540674      2.238112485
H      -0.120753425     -0.918226881      1.427373728
H      -1.052865227      0.603967108     -0.052129471
           6
  t=        44.50000    5    2
C       0.188306146     -0.033335924     -0.076304489
N      -0.119673545      0.008493884      1.422457706
H       0.454401397     -0.113629891     -1.312636081
H       0.112739361      0.721668653      2.306979305
H      -0.126489171     -0.925836534      1.439413076
H      -1.020001251      0.596659000     -0.018944724
           6
  t=        45.00000    5    2
C       0.186190595     -0.034423739     -0.076658470
N      -0.117456985      0.009417014      1.412751351
H       0.438154620     -0.105064314     -1.279418843
H       0.091884771      0.747042448      2.366458468
H      -0.134744765     -0.946000750      1.457849451
H      -0.980252526      0.583009443      0.009001121
           6
  t=        45.50000    5    2
C       0.182931765     -0.034264202     -0.076835507
N      -0.114745465      0.011062736      1.403004762
H       0.423824369     -0.098048907     -1.236940771
H       0.072536538      0.763937418      2.415000607
H      -0.145499912     -0.975019995      1.482075811
H      -0.934691446      0.563351949      0.031285345
           6
  t=        46.00000    5    2
C       0.178588525     -0.032915639     -0.076659797
N      -0.111550099      0.013131688      1.393339311
H       0.412053524     -0.092783027     -1.186839646
H       0.054894044      0.772237666      2.451900655
H      -0.158613473     -1.008259144      1.511076786
H      -0.884847956      0.538220590      0.047486532
           6
  t=        46.50000    5    2
C       0.173241135     -0.030467680     -0.075883053
N      -0.107886187      0.015331038      1.383875375
H       0.403776970     -0.089464528     -1.131720341
H       0.039242034      0.772095036      2.476881993
H      -0.173855380     -1.041360280      1.543548779
H      -0.832914777      0.508439350      0.057160913
           6
  t=        47.00000    5    2
C       0.167006015     -0.027046136     -0.074177780
N      -0.103766588      0.017424814      1.374751150
H       0.400347465     -0.088313580     -1.075433670
H       0.025900221      0.763763549      2.489852627
H      -0.190955072     -1.070839979      1.578080989
H      -0.782042488      0.475267654      0.059842503
           6
  t=        47.50000    5    2
C       0.160066907     -0.022822995     -0.071139798
N      -0.099197872      0.019244546      1.366119595
H       0.403591996     -0.089611242     -1.023075844
H       0.015190151      0.747522254      2.490779155
H      -0.209641506     -1.094203702      1.613308980
H      -0.736747160      0.440601591      0.055087596
           6
  t=        48.00000    5    2
C       0.152709161     -0.018022474     -0.066337121
N      -0.094180450      0.020679765      1.358134477
H       0.415713850     -0.093706658     -0.980304461
H       0.007407731      0.723649457      2.479632957
H      -0.229662843     -1.109802248      1.648014564
H      -0.703171735      0.407067400      0.042520533
           6
  t=        48.50000    5    2
C       0.145316466     -0.012898108     -0.059427758
N      -0.088712693      0.021660238      1.350935374
H       0.438879374     -0.100935960     -0.951670339
H       0.002802767      0.692444038      2.456383316
H      -0.250782489     -1.116603968      1.681163146
H      -0.688560097      0.377665326      0.021746052
           6
  t=        49.00000    5    2
C       0.138262498     -0.007656681     -0.050293381
N      -0.082797256      0.022136935      1.344632674
H       0.474444020     -0.111419523     -0.938549210
H       0.001567012      0.654299024      2.421050974
H      -0.272758602     -1.113994212      1.711879696
H      -0.699113713      0.354651446     -0.007948506
           6
  t=        49.50000    5    2
C       0.131691847     -0.002359716     -0.039088325
N      -0.076448224      0.022063581      1.339291355
H       0.522207002     -0.124848788     -0.938315496
H       0.003836041      0.609852275      2.373872075
H      -0.295307848     -1.101655643      1.739382477
H      -0.736576629      0.338137492     -0.047708301
           6
  t=        50.00000    5    2
C       0.125384841      0.003088654     -0.026180158
N      -0.069700938      0.021374958      1.334905445
H       0.580283480     -0.140493033     -0.945645754
H       0.009697744      0.560248487      2.315636671
H      -0.318031363     -1.079530196      1.762902077
H      -0.796444077      0.325954714     -0.098417895
           6
  t=        50.50000    5    2
C       0.118898609      0.008838544     -0.012016571
N      -0.062620918      0.019948351      1.331343218
H       0.645609900     -0.157528727     -0.954818525
H       0.019155953      0.507556586      2.248306987
H      -0.340252375     -1.047824374      1.781653216
H      -0.870149605      0.315334782     -0.159814842
           6
  t=        51.00000    5    2
C       0.111740965      0.015025838      0.002969014
N      -0.055279151      0.017544578      1.328289285
H       0.714807699     -0.175670501     -0.961349122
H       0.031808320      0.455452372      2.176206400
H      -0.360672692     -1.007302208      1.795130788
H      -0.948363774      0.304785877     -0.230659286
           6
  t=        51.50000    5    2
C       0.103436613      0.021759876      0.018010692
N      -0.047755386      0.013749519      1.325299051
H       0.784785175     -0.196156553     -0.961597628
H       0.045503483      0.410690462      2.107659823
H      -0.376231953     -0.960486095      1.803692332
H      -1.022136557      0.295766040     -0.307976753
           6
  t=        52.00000    5    2
C       0.094050467      0.029032637      0.032248310
N      -0.040267592      0.008039512      1.321692558
H       0.852340359     -0.219709072     -0.952962094
H       0.059106474      0.382879104      2.055422332
H      -0.384679538     -0.910470285      1.807637254
H      -1.087126021      0.289854886     -0.387734396
           6
  t=        52.50000    5    2
C       0.083797801      0.036777182      0.045183079
N      -0.033043706      0.000024842      1.316684259
H       0.915162175     -0.245780000     -0.934513396
H       0.074121055      0.380721211      2.032501567
H      -0.386145843     -0.860093160      1.807206464
H      -1.141790646      0.286851721     -0.467256240
           6
  t=        53.00000    5    2
C       0.072898627      0.044918072      0.056453951
N      -0.026191358     -0.010244192      1.310168650
H       0.971576569     -0.273726996     -0.906160518
H       0.091470840      0.407411174      2.041963492
H      -0.381523726     -0.812651189      1.803176664
H      -1.185611346      0.286415616     -0.544711115
           6
  t=        53.50000    5    2
C       0.061569688      0.053384190      0.065756381
N      -0.019620755     -0.022114542      1.302961298
H       1.020308599     -0.302983300     -0.868291795
H       0.110016676      0.458290654      2.073620755
H      -0.372181980     -0.772034279      1.797134934
H      -1.218633554      0.288301176     -0.618816021
           6
  t=        54.00000    5    2
C       0.050014487      0.062111089      0.072830183
N      -0.013129295     -0.034633593      1.296107743
H       1.060360213     -0.333035115     -0.821581001
H       0.127601083      0.524817122      2.113316657
H      -0.359870262     -0.742501781      1.791558885
H      -1.241190196      0.292327884     -0.688647181
           6
  t=        54.50000    5    2
C       0.038413224      0.071036035      0.077476668
N      -0.006521322     -0.046924716      1.290314986
H       1.090939220     -0.363382191     -0.766878058
H       0.142416167      0.599149203      2.150743837
H      -0.346416483     -0.727996631      1.789449953
H      -1.253717383      0.298346570     -0.753506365
           6
  t=        55.00000    5    2
C       0.026915915      0.080089150      0.079575723
N       0.000321927     -0.058368892      1.285926122
H       1.111419343     -0.393507661     -0.705153506
H       0.153369439      0.675622037      2.180418567
H      -0.333119345     -0.731000211      1.793353660
H      -1.256633995      0.306217750     -0.812821701
           6
  t=        55.50000    5    2
C       0.015640320      0.089188698      0.079089204
N       0.007406406     -0.068654559      1.283112309
H       1.121332583     -0.422851290     -0.637477318
H       0.159981114      0.750431377      2.200053713
H      -0.320179927     -0.751444596      1.804181211
H      -1.250276067      0.315761790     -0.866071260
           6
  t=        56.00000    4    1
C       0.004663433      0.098269304      0.076021719
N       0.014626953     -0.077759883      1.282045409
H       1.120619234     -0.450460422     -0.565018568
H       0.162912405      0.820909168      2.209118551
H      -0.307403430     -0.786355577      1.820617115
H      -1.234895464      0.326194932     -0.912682530
           6
  t=        56.50000    1    1
C      -0.006320308      0.107312369      0.070454048
N       0.022096163     -0.086028954      1.282771955
H       1.110800152     -0.473401331     -0.487706375
H       0.165163741      0.885407352      2.207953391
H      -0.297388952     -0.830076441      1.840606696
H      -1.210340579      0.335577112     -0.952620399
           6
  t=        57.00000    1    1
C      -0.016982329      0.116207735      0.062615428
N       0.029463523     -0.093511612      1.285370702
H       1.090583384     -0.493029540     -0.408082328
H       0.164665173      0.942495653      2.197285274
H      -0.285540213     -0.878575776      1.861205374
H      -1.176887888      0.344666887     -0.984949470
           6
  t=        57.50000    1    1
C      -0.027197458      0.124587292      0.052860415
N       0.036547432     -0.100125304      1.289788853
H       1.059295745     -0.510130585     -0.328202236
H       0.159427158      0.990928462      2.177504161
H      -0.268259780     -0.928481138      1.879828598
H      -1.134439261      0.355358944     -1.008907405
           6
  t=        58.00000    1    1
C      -0.036951587      0.132305325      0.041473868
N       0.043231749     -0.105905569      1.295942332
H       1.017463922     -0.524494112     -0.249975191
H       0.149764922      1.029681211      2.149425312
H      -0.244990176     -0.976576401      1.894676759
H      -1.082948387      0.367480163     -1.023824365
           6
  t=        58.50000    1    1
C      -0.046248265      0.139217084      0.028825774
N       0.049406852     -0.110804669      1.303665189
H       0.966167253     -0.536179298     -0.175687318
H       0.136103178      1.057690073      2.113868242
H      -0.215597616     -1.020488588      1.904620977
H      -1.022487702      0.380840804     -1.029204442
           6
  t=        59.00000    1    1
C      -0.055179879      0.145237348      0.015323304
N       0.054981618     -0.114745911      1.312720994
H       0.907352558     -0.545832630     -0.107764130
H       0.118941848      1.073876034      2.071753140
H      -0.180197612     -1.058313867      1.909214434
H      -0.953022305      0.395211659     -1.024658594
           6
  t=        59.50000    1    1
C      -0.063742920      0.150269345      0.001077524
N       0.059889709     -0.117666012      1.323045707
H       0.842176006     -0.553993776     -0.048130839
H       0.098594341      1.077909016      2.024265569
H      -0.139032764     -1.088911431      1.907964299
H      -0.874899256      0.410594613     -1.009386959
           6
  t=        60.00000    1    1
C      -0.071956294      0.154237654     -0.013568261
N       0.064065686     -0.119420307      1.334460542
H       0.772792773     -0.561993639      0.000898744
H       0.075466253      1.069075423      1.972460207
H      -0.092556683     -1.111481158      1.900751503
H      -0.789091335      0.427122071     -0.983614917
           6
  t=        60.50000    1    1
C      -0.079822833      0.157099428     -0.028206231
N       0.067460863     -0.119853619      1.346756776
H       0.701740267     -0.571755874      0.037280367
H       0.050035994      1.046722944      1.917521166
H      -0.041366829     -1.125506245      1.887731421
H      -0.697306755      0.445207262     -0.948593478
           6
  t=        61.00000    1    1
C      -0.087272077      0.158809144     -0.042329757
N       0.070046385     -0.118822836      1.359700250
H       0.631569499     -0.585630369      0.059465119
H       0.022860123      1.010458305      1.860855275
H       0.013819661     -1.130744959      1.869293686
H      -0.602373957      0.465905207     -0.907349027
           6
  t=        61.50000    1    1
C      -0.094105128      0.159249984     -0.055242373
N       0.071816610     -0.116227578      1.373015235
H       0.564409747     -0.606098983      0.066497833
H      -0.005450377      0.960472752      1.804211681
H       0.072186160     -1.127236637      1.846069536
H      -0.508506439      0.491542083     -0.865768414
           6
  t=        62.00000    1    1
C      -0.100006195      0.158142181     -0.066004603
N       0.072794189     -0.112059659      1.386360207
H       0.501534411     -0.635316379      0.057977900
H      -0.034317274      0.898166984      1.749871000
H       0.132844375     -1.115331021      1.818949635
H      -0.420742331      0.526438979     -0.833063267
           6
  t=        62.50000    1    1
C      -0.104709638      0.155040996     -0.073638175
N       0.073041979     -0.106486743      1.399304418
H       0.443121655     -0.674590123      0.033937760
H      -0.063421706      0.827265213      1.700919043
H       0.194879556     -1.095725459      1.789083606
H      -0.342700196      0.576501605     -0.819164573
           6
  t=        63.00000    1    1
C      -0.108222273      0.149595157     -0.077688675
N       0.072693067     -0.099980913      1.411316929
H       0.388323925     -0.723949195     -0.005225661
H      -0.093224692      0.755517928      1.661534458
H       0.257418230     -1.069490607      1.757831083
H      -0.273965986      0.645820956     -0.828041147
           6
  t=        63.50000    1    1
C      -0.110783078      0.141906097     -0.078574998
N       0.072007467     -0.093452057      1.421777857
H       0.335706769     -0.781887556     -0.058369582
H      -0.125811839      0.696170712      1.636863205
H       0.319700784     -1.038045008      1.726687630
H      -0.211027283      0.732498496     -0.853876691
           6
  t=        64.00000    1    1
C      -0.112571527      0.132468150     -0.077171547
N       0.071373581     -0.088069624      1.430076127
H       0.283707413     -0.845477615     -0.123725186
H      -0.165289095      0.665410342      1.631887533
H       0.381221035     -1.003038925      1.697236022
H      -0.150968806      0.829432911     -0.886103218
           6
  t=        64.50000    1    1
C      -0.113586094      0.121746149     -0.074214412
N       0.071119419     -0.084418787      1.435821409
H       0.230783064     -0.910901668     -0.199345242
H      -0.215560395      0.671639725      1.648901750
H       0.441918705     -0.966478276      1.670826355
H      -0.092859205      0.929005410     -0.916124439
           6
  t=        65.00000    1    1
C      -0.113764439      0.110024880     -0.070182135
N       0.071195837     -0.081944373      1.438991625
H       0.175953009     -0.974099865     -0.282778817
H      -0.275728169      0.707476790      1.685540701
H       0.502104519     -0.930521320      1.648496629
H      -0.036985533      1.025591808     -0.939059492
           6
  t=        65.50000    1    1
C      -0.113072586      0.097453418     -0.065369099
N       0.071223425     -0.079548566      1.439826257
H       0.118915874     -1.031472751     -0.371229155
H      -0.340422535      0.757507621      1.736374567
H       0.562223201     -0.896903947      1.630929864
H       0.016006122      1.115714006     -0.952780590
           6
  t=        66.00000    1    1
C      -0.111530722      0.084125823     -0.059963703
N       0.070816981     -0.076396892      1.438625938
H       0.059939742     -1.080296771     -0.461854324
H      -0.403870695      0.808983647      1.795747470
H       0.622438540     -0.866366075      1.618423303
H       0.065503550      1.197422511     -0.956704900
           6
  t=        66.50000    1    1
C      -0.109205436      0.070134307     -0.054098192
N       0.069764973     -0.072121067      1.435657339
H      -0.000329627     -1.118810873     -0.552022790
H      -0.462027126      0.854532274      1.859117871
H       0.682268895     -0.838488424      1.610928135
H       0.111029113      1.269694583     -0.951004223
           6
  t=        67.00000    1    1
C      -0.106192878      0.055590300     -0.047875668
N       0.068032236     -0.066685931      1.431143522
H      -0.061051032     -1.146093577     -0.639454705
H      -0.512561135      0.890674327      1.923138933
H       0.740521954     -0.812026277      1.608146900
H       0.152236622      1.332027852     -0.936185774
           6
  t=        67.50000    1    1
C      -0.102604352      0.040626882     -0.041384124
N       0.065700490     -0.060224686      1.425278099
H      -0.121318259     -1.161864246     -0.722263542
H      -0.554281017      0.916096288      1.985361891
H       0.795532272     -0.785455609      1.609637576
H       0.188883461      1.384197404     -0.912887703
           6
  t=        68.00000    1    1
C      -0.098556750      0.025393510     -0.034703997
N       0.062908768     -0.052928946      1.418238258
H      -0.180237503     -1.166285724     -0.798932320
H      -0.586661649      0.930573926      2.043946364
H       0.845506084     -0.757419411      1.614895002
H       0.220804511      1.426116089     -0.881785611
           6
  t=        68.50000    1    1
C      -0.094166981      0.010049429     -0.027913428
N       0.059811904     -0.044992188      1.410193762
H      -0.236963580     -1.159802719     -0.868259393
H      -0.609551892      0.934402897      2.097453110
H       0.888799143     -0.726947185      1.623399268
H       0.247888374      1.457754583     -0.843550310
           6
  t=        69.00000    1    1
C      -0.089549032     -0.005242885     -0.021092019
N       0.056557848     -0.036586112      1.401312625
H      -0.290712499     -1.143020376     -0.929294776
H      -0.623010013      0.928110553      2.144706122
H       0.924064712     -0.693495852      1.634640468
H       0.270057638      1.479098704     -0.798832539
           6
  t=        69.50000    1    1
C      -0.084812894     -0.020327922     -0.014322500
N       0.053277935     -0.027851275      1.391762345
H      -0.340766982     -1.116594609     -0.981271423
H      -0.627223824      0.912306233      2.184709173
H       0.950306889     -0.656903253      1.648134213
H       0.287263545      1.490134186     -0.748260918
           6
  t=        70.00000    1    1
C      -0.080121998     -0.034967905     -0.007732876
N       0.050077149     -0.018926441      1.381786583
H      -0.386279886     -1.081751298     -1.023820785
H      -0.622312808      0.887557181      2.216415066
H       0.967089114     -0.617231385      1.663354187
H       0.299702284      1.490678517     -0.692491888
           6
  t=        70.50000    1    1
C      -0.075538869     -0.049010383     -0.001438389
N       0.047035389     -0.009905681      1.371586420
H      -0.426783575     -1.039211617     -1.056467783
H      -0.608561261      0.854541042      2.238966648
H       0.974051093     -0.574866171      1.679870488
H       0.307185112      1.480652994     -0.632135183
           6
  t=        71.00000    1    1
C      -0.071116256     -0.062313366      0.004434022
N       0.044213805     -0.000862332      1.361376170
H      -0.461877482     -0.989683824     -1.078825859
H      -0.586329710      0.813975179      2.251546743
H       0.971135746     -0.530414206      1.697285956
H       0.309507508      1.459983439     -0.567829344
           6
  t=        71.50000    1    1
C      -0.066901953     -0.074746034      0.009745954
N       0.041655853      0.008147161      1.351382551
H      -0.491204015     -0.933871648     -1.090580627
H      -0.556093558      0.766662146      2.253383384
H       0.958631270     -0.484701507      1.715246037
H       0.306464392      1.428623655     -0.500264368
           6
  t=        72.00000    1    1
C      -0.062939744     -0.086190280      0.014350169
N       0.039386685      0.017078977      1.341839324
H      -0.514448479     -0.872489557     -1.091490941
H      -0.518519940      0.713567141      2.243802023
H       0.937252077     -0.438787610      1.733455686
H       0.297865632      1.386585029     -0.430206675
           6
  t=        72.50000    1    1
C      -0.059266900     -0.096542840      0.018097218
N       0.037412544      0.025894378      1.332972814
H      -0.531365085     -0.806287482     -1.081408863
H      -0.474607037      0.655946293      2.222369414
H       0.908259276     -0.393984698      1.751708635
H       0.283559542      1.333982231     -0.358529828
           6
  t=        73.00000    1    1
C      -0.055909613     -0.105716452      0.020849278
N       0.035724532      0.034544639      1.324971532
H      -0.541827808     -0.736095917     -1.060333408
H      -0.425911383      0.595558066      2.189202879
H       0.873595336     -0.351871789      1.769930617
H       0.263469652      1.271104296     -0.286256098
           6
  t=        73.50000    1    1
C      -0.052877692     -0.113639574      0.022503960
N       0.034314399      0.042941950      1.317930140
H      -0.545905621     -0.662902175     -1.028522065
H      -0.374892230      0.535005543      2.145578953
H       0.835969555     -0.314281907      1.788235222
H       0.237646324      1.198536738     -0.214614247
           6
  t=        74.00000    4    1
C      -0.050159319     -0.120257986      0.023030227
N       0.033212807      0.050911240      1.311758573
H      -0.543969355     -0.587965927     -0.986702365
H      -0.325365045      0.478238657      2.095011803
H       0.798765661     -0.283228533      1.806967327
H       0.206325392      1.117389644     -0.145114822
           6
  t=        74.50000    4    1
C      -0.047623439     -0.125746388      0.022325562
N       0.032412815      0.058251771      1.306168678
H      -0.538575401     -0.512309272     -0.936059561
H      -0.284185384      0.429073294      2.045600915
H       0.767253164     -0.258575006      1.825893362
H       0.172185290      1.029601835     -0.079214154
           6
  t=        75.00000    4    1
C      -0.045279885     -0.129987169      0.020834752
N       0.032326581      0.064370325      1.300337269
H      -0.529643349     -0.438731848     -0.879932064
H      -0.257243981      0.396908626      2.008193727
H       0.742979328     -0.244078247      1.846268700
H       0.133879447      0.939172695     -0.019535002
           6
  t=        75.50000    4    1
C      -0.042988853     -0.133241013      0.019011158
N       0.033291187      0.068783215      1.293513382
H      -0.519920030     -0.369893291     -0.823340490
H      -0.251087932      0.388469296      1.995063456
H       0.727736109     -0.240703937      1.868222317
H       0.092561715      0.852827324      0.031577100
           6
  t=        76.00000    4    1
C      -0.040522247     -0.136047822      0.017457223
N       0.035480078      0.071283927      1.285634407
H      -0.513491989     -0.308725117     -0.773690708
H      -0.267700927      0.405770613      2.009735378
H       0.721348298     -0.248641993      1.891252969
H       0.049351736      0.780969765      0.072200754
           6
  t=        76.50000    1    1
C      -0.037547389     -0.139221193      0.016800459
N       0.038801527      0.072040819      1.277580793
H      -0.515388739     -0.257637359     -0.739823156
H      -0.303104509      0.444825526      2.043359438
H       0.721818244     -0.267237503      1.914172708
H       0.004611528      0.736690342      0.101509440
           6
  t=        77.00000    1    1
C      -0.033589451     -0.143801864      0.017115377
N       0.042860846      0.071551899      1.270597869
H      -0.532451148     -0.216267061     -0.726966162
H      -0.352604458      0.496612578      2.083877661
H       0.728182021     -0.292860591      1.934737196
H      -0.038718054      0.730490022      0.120843583
           6
  t=        77.50000    1    1
C      -0.028606169     -0.149615224      0.018738159
N       0.047698048      0.069960514      1.265514801
H      -0.562901904     -0.184936085     -0.738296976
H      -0.407854109      0.557176499      2.120077245
H       0.735482331     -0.325800182      1.951901203
H      -0.086862914      0.762864105      0.130114890
           6
  t=        78.00000    1    1
C      -0.022835821     -0.156060529      0.021269710
N       0.053215814      0.067491451      1.262789921
H      -0.603407097     -0.161980837     -0.768970453
H      -0.464189322      0.621855334      2.146421161
H       0.741265347     -0.363951303      1.964308822
H      -0.141177911      0.824429767      0.129754852
           6
  t=        78.50000    1    1
C      -0.016793276     -0.162309110      0.024145077
N       0.059332107      0.064317458      1.262549307
H      -0.648538749     -0.145929594     -0.811389142
H      -0.518372487      0.687288659      2.160639292
H       0.743764862     -0.405234497      1.971055036
H      -0.201292171      0.902729206      0.120316204
           6
  t=        79.00000    1    1
C      -0.011010203     -0.167728508      0.026844696
N       0.065949309      0.060589732      1.264721479
H      -0.693254306     -0.135716327     -0.858566261
H      -0.568164164      0.750939632      2.162359951
H       0.741859570     -0.447743370      1.971690809
H      -0.265679500      0.987695455      0.102812400
           6
  t=        79.50000    1    1
C      -0.005887547     -0.171974969      0.028994004
N       0.072948902      0.056449111      1.269132568
H      -0.733925322     -0.130524044     -0.905383764
H      -0.611960770      0.810766349      2.152170410
H       0.734951986     -0.489836081      1.966157386
H      -0.332553775      1.072861741      0.078472540
           6
  t=        80.00000    1    1
C      -0.001676523     -0.174915739      0.030374951
N       0.080195185      0.052023368      1.275552952
H      -0.768286840     -0.129641218     -0.948462823
H      -0.648553114      0.865049956      2.131078109
H       0.722873041     -0.530169770      1.954731813
H      -0.400343389      1.154536517      0.048420034
           6
  t=        80.50000    1    1
C       0.001486221     -0.176534760      0.030894969
N       0.087539176      0.047426586      1.283717344
H      -0.795049566     -0.132417240     -0.985645028
H      -0.676978647      0.912300456      2.100233334
H       0.705824326     -0.567723347      1.938002047
H      -0.467804729      1.230761785      0.013546419
           6
  t=        81.00000    1    1
C       0.003537725     -0.176872681      0.030550269
N       0.094821446      0.042766991      1.293335045
H      -0.813536280     -0.138263436     -1.015556413
H      -0.696429104      0.951182728      2.060782754
H       0.684344210     -0.601838389      1.916849281
H      -0.533996837      1.300605812     -0.025465941
           6
  t=        81.50000    1    1
C       0.004460287     -0.176001060      0.029408323
N       0.101875004      0.038158476      1.304084208
H      -0.823425819     -0.146637751     -1.037354337
H      -0.706212166      0.980497041      2.013816670
H       0.659289846     -0.632292730      1.892441814
H      -0.598259348      1.363773679     -0.068049815
           6
  t=        82.00000    1    1
C       0.004267922     -0.174013833      0.027601848
N       0.108527960      0.033728678      1.315596019
H      -0.824596493     -0.157005792     -1.050586377
H      -0.705767348      0.999253566      1.960399230
H       0.631814635     -0.659384401      1.866242924
H      -0.660206418      1.420363920     -0.113640859
           6
  t=        82.50000    1    1
C       0.002996257     -0.171016810      0.025302057
N       0.114607054      0.029622711      1.327463547
H      -0.817037280     -0.168837226     -1.055061491
H      -0.694685767      1.006734642      1.901612805
H       0.603301862     -0.683959560      1.839978161
H      -0.719658082      1.470653585     -0.161622612
           6
  t=        83.00000    1    1
C       0.000690783     -0.167114389      0.022681512
N       0.119948295      0.025999725      1.339273985
H      -0.800802566     -0.181651389     -1.050750291
H      -0.672723922      1.002492456      1.838590279
H       0.575216331     -0.707327075      1.815503874
H      -0.776531376      1.514950483     -0.211332650
           6
  t=        83.50000    1    1
C      -0.002597885     -0.162401390      0.019897678
N       0.124414862      0.023015109      1.350637498
H      -0.776025621     -0.195057503     -1.037776010
H      -0.639830756      0.986346720      1.772565511
H       0.548874298     -0.731001058      1.794571284
H      -0.830761977      1.553528187     -0.262091233
           6
  t=        84.00000    1    1
C      -0.006810758     -0.156959206      0.017097503
N       0.127919175      0.020785418      1.361204810
H      -0.742988995     -0.208770562     -1.016492132
H      -0.596217327      0.958440719      1.704970420
H       0.525186836     -0.756261746      1.778547381
H      -0.882252836      1.586588341     -0.313240510
           6
  t=        84.50000    1    1
C      -0.011874057     -0.150850526      0.014427648
N       0.130447816      0.019337705      1.370674751
H      -0.702232783     -0.222638642     -0.987615881
H      -0.542538981      0.919459525      1.637580792
H       0.504482707     -0.783670502      1.768213046
H      -0.930829334      1.614225851     -0.364181659
           6
  t=        85.00000    1    1
C      -0.017688763     -0.144112884      0.012053042
N       0.132090137      0.018548204      1.378786675
H      -0.654703743     -0.236698486     -0.952451969
H      -0.480291271      0.871185804      1.572665837
H       0.486510158     -0.812784477      1.763731681
H      -0.976217887      1.636418499     -0.414384799
           6
  t=        85.50000    1    1
C      -0.024116112     -0.136752273      0.010193321
N       0.133077754      0.018066105      1.385298566
H      -0.601942492     -0.251266392     -0.913246285
H      -0.412529009      0.817621541      1.513065387
H       0.470626444     -0.842232164      1.764785448
H      -1.018050730      1.653054705     -0.463378592
           6
  t=        86.00000    1    1
C      -0.030965377     -0.128728579      0.009168942
N       0.133838307      0.017208719      1.389976677
H      -0.546256402     -0.267102417     -0.873641689
H      -0.344843571      0.766772678      1.462019258
H       0.456065794     -0.870080211      1.770787912
H      -1.055876041      1.663963165     -0.510741387
           6
  t=        86.50000    1    1
C      -0.037999114     -0.119921338      0.009422708
N       0.135007266      0.014887013      1.392639379
H      -0.490718450     -0.285705079     -0.839005013
H      -0.285660377      0.732063246      1.422426188
H       0.442137872     -0.894302246      1.781073324
H      -1.089161768      1.668889019     -0.556088134
           6
  t=        87.00000    1    1
C      -0.044985603     -0.110074779      0.011452540
N       0.137218972      0.009848881      1.393260423
H      -0.438581855     -0.309719159     -0.815992261
H      -0.243253159      0.729256997      1.395586175
H       0.428246535     -0.913234328      1.795026099
H      -1.117357611      1.667401163     -0.599011185
           6
  t=        87.50000    1    1
C      -0.051816558     -0.098789303      0.015622189
N       0.140641502      0.001485987      1.391988431
H      -0.391656761     -0.342975149     -0.810525146
H      -0.218916507      0.765590191      1.380988426
H       0.413655395     -0.926001099      1.812178228
H      -1.140247111      1.658912924     -0.639006145
           6
  t=        88.00000    1    1
C      -0.058590248     -0.085796289      0.022041106
N       0.144844678     -0.009620710      1.388904323
H      -0.348585554     -0.388536122     -0.824517615
H      -0.205336736      0.832938028      1.377992600
H       0.397504217     -0.932641487      1.832266759
H      -1.158494223      1.643380645     -0.675683325
           6
  t=        88.50000    1    1
C      -0.065471960     -0.071295355      0.030497889
N       0.149243976     -0.022301487      1.383970065
H      -0.306613636     -0.445657690     -0.854005185
H      -0.194636934      0.915963662      1.385996204
H       0.379843423     -0.933271305      1.854972163
H      -1.172691255      1.621636870     -0.709039585
           6
  t=        89.00000    1    1
C      -0.072570784     -0.055631441      0.040166136
N       0.153419479     -0.035490361      1.377460666
H      -0.264312560     -0.511606420     -0.890967148
H      -0.182725109      1.001152749      1.403786867
H       0.361627364     -0.928168181      1.879293180
H      -1.182179595      1.594036144     -0.738863247
           6
  t=        89.50000    1    1
C      -0.080031535     -0.039219918      0.050185745
N       0.157161598     -0.048439378      1.369654589
H      -0.220259795     -0.582563397     -0.927602248
H      -0.167473534      1.080189162      1.430227541
H       0.343442457     -0.918147256      1.904485748
H      -1.186459535      1.560444208     -0.764702477
           6
  t=        90.00000    1    1
C      -0.087896397     -0.022454512      0.060003295
N       0.160378803     -0.060693309      1.360756293
H      -0.173947999     -0.654796239     -0.958434835
H      -0.147995326      1.148620016      1.463859678
H       0.325610628     -0.904148347      1.929994002
H      -1.185473191      1.520884326     -0.786269793
           6
  t=        90.50000    1    1
C      -0.096165175     -0.005601819      0.069202204
N       0.163050457     -0.071994911      1.351007529
H      -0.125763705     -0.725579261     -0.980157430
H      -0.124433411      1.204271867      1.503146769
H       0.308584612     -0.887035031      1.955248895
H      -1.178859449      1.475267922     -0.803165929
           6
  t=        91.00000    1    1
C      -0.104835622      0.011116242      0.077434127
N       0.165193204     -0.082145589      1.340680388
H      -0.076403313     -0.792833996     -0.991096553
H      -0.097184698      1.246012109      1.546842585
H       0.292728631     -0.867682097      1.979673377
H      -1.166147183      1.423406910     -0.814873949
           6
  t=        91.50000    1    1
C      -0.113966539      0.027537924      0.084343189
N       0.166866804     -0.090990507      1.330096244
H      -0.026591503     -0.855029490     -0.990571474
H      -0.066844842      1.273278977      1.593873363
H       0.278362848     -0.846859875      2.002627848
H      -1.146466470      1.364877002     -0.820589166
           6
  t=        92.00000    1    1
C      -0.124208053      0.043649981      0.088947488
N       0.168391535     -0.098317874      1.320044752
H       0.023835553     -0.911390298     -0.978134703
H      -0.034818684      1.285248884      1.643373866
H       0.265867844     -0.825242351      2.022383260
H      -1.115665957      1.297615333     -0.817445168
           6
  t=        92.50000    1    1
C      -0.134990794      0.059128485      0.091875076
N       0.169575008     -0.104129123      1.310210435
H       0.073587815     -0.960220411     -0.954958578
H      -0.000429358      1.282723024      1.694073804
H       0.254954701     -0.803394069      2.039839964
H      -1.076949815      1.223566093     -0.806994430
           6
  t=        93.00000    1    1
C      -0.146252865      0.073856367      0.093075639
N       0.170431432     -0.108367196      1.300732945
H       0.121760987     -1.000795457     -0.921656282
H       0.035804267      1.266030735      1.744990043
H       0.245842105     -0.781912636      2.054688699
H      -1.030047997      1.142874345     -0.788672698
           6
  t=        93.50000    1    1
C      -0.157936890      0.087735921      0.092497411
N       0.170978628     -0.110983110      1.291755777
H       0.167459668     -1.032590338     -0.878941277
H       0.073306866      1.235555146      1.795134320
H       0.238735133     -0.761375878      2.066555445
H      -0.974625630      1.055692461     -0.761781611
           6
  t=        94.00000    1    1
C      -0.169957662      0.100669843      0.090118861
N       0.171230190     -0.111934665      1.283408802
H       0.209777954     -1.055231466     -0.827616315
H       0.111481366      1.191739928      1.843481592
H       0.233799338     -0.742375441      2.075057862
H      -0.910548701      0.962367053     -0.725659142
           6
  t=        94.50000    1    1
C      -0.182192064      0.112525249      0.085974193
N       0.171202364     -0.111181274      1.275808225
H       0.247845733     -1.068454770     -0.768575004
H       0.149710458      1.135120310      1.888949101
H       0.231138351     -0.725566591      2.079822496
H      -0.838125115      0.863772406     -0.679977330
           6
  t=        95.00000    1    1
C      -0.194433578      0.123062955      0.080225597
N       0.170917971     -0.108684602      1.269052513
H       0.280851858     -1.072100787     -0.702815126
H       0.187342601      1.066415753      1.930404155
H       0.230799944     -0.711706356      2.080502958
H      -0.758715996      0.762101899     -0.625558616
           6
  t=        95.50000    1    1
C      -0.206259205      0.131786068      0.073340845
N       0.170403987     -0.104413417      1.263220503
H       0.308021065     -1.066116213     -0.631436819
H       0.223677301      0.986657628      1.966698269
H       0.232795181     -0.701683996      2.076781543
H      -0.676268010      0.662642587     -0.566501728
           6
  t=        96.00000    1    1
C      -0.216788573      0.137669567      0.066471951
N       0.169689571     -0.098353401      1.258376044
H       0.328573477     -1.050550105     -0.555635288
H       0.257963001      0.897349000      1.996740118
H       0.237109807     -0.696539962      2.068346725
H      -0.600123114      0.576986714     -0.514812599
           6
  t=        96.50000    1    1
C      -0.224553721      0.138986968      0.061876383
N       0.168808657     -0.090527082      1.254581420
H       0.341720424     -1.025580243     -0.476707876
H       0.289437692      0.800658874      2.019615992
H       0.243687797     -0.697460761      2.054847401
H      -0.546624786      0.525199541     -0.495673755
           6
  t=        97.00000    1    1
C      -0.228394559      0.134268145      0.061888498
N       0.167808178     -0.081033492      1.251922445
H       0.346778926     -0.991650733     -0.396108845
H       0.317454606      0.699660580      2.034807306
H       0.252370521     -0.705705979      2.035836615
H      -0.528749813      0.524791926     -0.535652503
           6
  t=        97.50000    1    1
C      -0.228962338      0.124210540      0.065911305
N       0.166752449     -0.070091965      1.250526052
H       0.343320799     -0.949688999     -0.315547700
H       0.341628810      0.598552181      2.042667216
H       0.262888158     -0.722437504      2.010734950
H      -0.538554486      0.568398351     -0.627468461
           6
  t=        98.00000    1    1
C      -0.227658744      0.110745828      0.071390450
N       0.165702911     -0.058043794      1.250505501
H       0.331239173     -0.901252079     -0.237109191
H       0.361986025      0.502640419      2.045083732
H       0.274920344     -0.748529736      1.978818398
H      -0.559801355      0.634885384     -0.741360307
           6
  t=        98.50000    1    1
C      -0.225378011      0.095385377      0.076506284
N       0.164683560     -0.045314913      1.251864467
H       0.310945277     -0.848868297     -0.163411928
H       0.379151899      0.417842497      2.045968851
H       0.288124634     -0.784325970      1.939251231
H      -0.582870784      0.709129935     -0.856170490
           6
  t=        99.00000    1    1
C      -0.222604012      0.079154667      0.080496958
N       0.163666698     -0.032348928      1.254466606
H       0.283867246     -0.796822761     -0.097711237
H       0.394381498      0.349510930      2.050924226
H       0.302138405     -0.829311005      1.891191622
H      -0.603937089      0.783502795     -0.962437920
           6
  t=        99.50000    1    1
C      -0.219736003      0.062972932      0.083214967
N       0.162604879     -0.019524011      1.258122567
H       0.253144655     -0.752194515     -0.043702037
H       0.409104658      0.300900663      2.065441033
H       0.316586296     -0.881822931      1.833990853
H      -0.621781241      0.854475458     -1.056922903
           6
  t=       100.00000    1    1
C      -0.217261488      0.047896047      0.084768265
N       0.161496050     -0.007110463      1.262747457
H       0.223934743     -0.725220809     -0.004853530
H       0.424112703      0.272308992      2.092275427
H       0.331085576     -0.939016705      1.767518024
H      -0.636135910      0.920326337     -1.138887325
