           6
  t=         0.00000    9    3
C       0.014820925     -0.024680285      0.036659222
N      -0.008129321      0.002987999      1.316828125
H       0.802539913     -0.027714778     -0.680497101
H       0.886168111      0.166620944      1.928889812
H      -0.860021396     -0.131476110      1.817586615
H      -0.892205187      0.244961618     -0.526930568
           6
  t=         0.50000    9    3
C       0.013603969     -0.023458350      0.036051212
N      -0.008243604      0.001610728      1.314387654
H       0.778132170     -0.033674542     -0.647185388
H       0.901738521      0.179308211      1.938769966
H      -0.857556917     -0.129429112      1.792379544
H      -0.869755106      0.240774938     -0.503768284
           6
  t=         1.00000    9    3
C       0.011964507     -0.022275256      0.033212144
N      -0.007570233      0.000332660      1.314586623
H       0.760893422     -0.040041211     -0.617455643
H       0.909688493      0.190813841      1.943194641
H      -0.857252145     -0.127591807      1.768846206
H      -0.850607098      0.237470621     -0.483350764
           6
  t=         1.50000    9    3
C       0.009886925     -0.021189579      0.028731836
N      -0.005985497     -0.000831098      1.317268917
H       0.754253296     -0.046415725     -0.594826289
H       0.909465426      0.200480018      1.941974642
H      -0.860492170     -0.125617621      1.748121241
H      -0.837786088      0.235448368     -0.467958782
           6
  t=         2.00000    9    3
C       0.007442977     -0.020265316      0.023278707
N      -0.003469107     -0.001883947      1.322127955
H       0.760580581     -0.052275003     -0.582249000
H       0.901191780      0.207746756      1.935585427
H      -0.868101015     -0.122973982      1.731296690
H      -0.834095564      0.235021784     -0.459907172
           6
  t=         2.50000    9    3
C       0.004779265     -0.019560156      0.017483199
N      -0.000160795     -0.002841958      1.328791741
H       0.780545493     -0.057090657     -0.581421274
H       0.885821130      0.212282623      1.924760674
H      -0.879752853     -0.119139831      1.718856864
H      -0.841289213      0.236383068     -0.461054335
           6
  t=         3.00000    9    3
C       0.001932684     -0.019116513      0.011628380
N       0.003893220     -0.003724611      1.336971410
H       0.812951928     -0.060422736     -0.591538642
H       0.864110664      0.214093693      1.910258871
H      -0.895082639     -0.113782440      1.710403600
H      -0.859090311      0.239529100     -0.471921923
           6
  t=         3.50000    9    3
C      -0.001124557     -0.018932744      0.005657655
N       0.008563965     -0.004589236      1.346379132
H       0.854901731     -0.061876017     -0.609925941
H       0.837690418      0.213677039      1.893655541
H      -0.913144357     -0.106545977      1.705387747
H      -0.885053815      0.243988770     -0.491538370
           6
  t=         4.00000    9    3
C      -0.004434740     -0.018971302     -0.000748479
N       0.013570559     -0.005527884      1.356758995
H       0.902703582     -0.061203046     -0.633019017
H       0.809472939      0.212057199      1.877230806
H      -0.932375471     -0.097123310      1.703123651
H      -0.915557419      0.249014898     -0.517702344
           6
  t=         4.50000    9    3
C      -0.007999937     -0.019183167     -0.008013420
N       0.018478386     -0.006661704      1.367864978
H       0.952607936     -0.058338197     -0.657326428
H       0.783688277      0.210794038      1.863874886
H      -0.950856324     -0.085332648      1.702953456
H      -0.946937869      0.253899794     -0.547677997
           6
  t=         5.00000    9    3
C      -0.011771928     -0.019526189     -0.016518012
N       0.022767153     -0.008131445      1.379436224
H       1.001289546     -0.053356297     -0.680010201
H       0.765374297      0.211861347      1.856792334
H      -0.966683384     -0.071133059      1.704382763
H      -0.976156373      0.258157308     -0.578854360
           6
  t=         5.50000    9    3
C      -0.015674720     -0.019972058     -0.026520804
N       0.025966728     -0.010071491      1.391223791
H       1.046089640     -0.046396561     -0.699055630
H       0.759029768      0.217237904      1.858695524
H      -0.978296695     -0.054581532      1.707096752
H      -1.000985509      0.261534972     -0.609106310
           6
  t=         6.00000    9    3
C      -0.019631378     -0.020506173     -0.038141106
N       0.027821874     -0.012567141      1.403064094
H       1.085062966     -0.037591651     -0.713193354
H       0.766720352      0.228242389      1.870654963
H      -0.984674073     -0.035762880      1.710905970
H      -1.019937588      0.263942885     -0.636890786
           6
  t=         6.50000    9    3
C      -0.023583451     -0.021124427     -0.051375572
N       0.028386723     -0.015621882      1.414927185
H       1.116914510     -0.027023889     -0.721727683
H       0.786982261      0.245012677      1.891478553
H      -0.985409772     -0.014726254      1.715678182
H      -1.032107648      0.265374206     -0.661202828
           6
  t=         7.00000    9    3
C      -0.027510851     -0.021828905     -0.066112108
N       0.027981169     -0.019163213      1.426877557
H       1.140953671     -0.014700428     -0.724385271
H       0.815588173      0.266528342      1.918283955
H      -0.980743938      0.008569563      1.721263853
H      -1.037021513      0.265832766     -0.681514722
           6
  t=         7.50000    9    3
C      -0.031497581     -0.022618157     -0.082066560
N       0.027093205     -0.023074507      1.438948210
H       1.157368332     -0.000507295     -0.721302021
H       0.847390704      0.290963038      1.947760170
H      -0.971688637      0.034328726      1.727305453
H      -1.034487750      0.265189073     -0.697863908
           6
  t=         8.00000    8    2
C      -0.036039148     -0.023406745     -0.098131311
N       0.026437006     -0.027155135      1.450687080
H       1.169344479      0.015358162     -0.714040782
H       0.877540444      0.315595298      1.977292434
H      -0.960792086      0.062270889      1.732664782
H      -1.024317817      0.262837354     -0.711841621
           6
  t=         8.50000    8    2
C      -0.040879735     -0.024237900     -0.115664367
N       0.025960192     -0.031601656      1.463102406
H       1.174921170      0.032437198     -0.702074473
H       0.904758335      0.342428204      2.006378922
H      -0.947097576      0.092730953      1.739640427
H      -1.006546650      0.260144268     -0.723611095
           6
  t=         9.00000    5    2
C      -0.045009411     -0.025225767     -0.134340585
N       0.025659172     -0.036182674      1.475953242
H       1.169413005      0.050171826     -0.684687921
H       0.925057927      0.369617870      2.030986864
H      -0.931315945      0.124959519      1.748886816
H      -0.983766689      0.258405026     -0.731032714
           6
  t=         9.50000    5    2
C      -0.048879849     -0.026273658     -0.153929702
N       0.026039347     -0.040850023      1.489318458
H       1.155711369      0.068471610     -0.661675688
H       0.937550088      0.395673955      2.050151623
H      -0.916353821      0.159336110      1.758528237
H      -0.956717787      0.257000411     -0.735309136
           6
  t=        10.00000    5    2
C      -0.051810823     -0.027555086     -0.174182157
N       0.026948113     -0.045605063      1.503070012
H       1.131466811      0.087389236     -0.634281119
H       0.941037182      0.420538756      2.063163361
H      -0.901869553      0.196261576      1.770250549
H      -0.928173521      0.257619459     -0.737365402
           6
  t=        10.50000    5    2
C      -0.053640459     -0.029122174     -0.194800929
N       0.028435866     -0.050446643      1.517180083
H       1.097390705      0.106853837     -0.603331594
H       0.935372796      0.443798625      2.069611414
H      -0.888473819      0.235976488      1.783803582
H      -0.900715771      0.261110724     -0.738863373
           6
  t=        11.00000    5    2
C      -0.054215291     -0.031029148     -0.215428195
N       0.030460042     -0.055395342      1.531629195
H       1.054831514      0.126838982     -0.569993713
H       0.920920444      0.465319219      2.069173624
H      -0.876138835      0.278575417      1.798712225
H      -0.877320227      0.268472043     -0.741829070
           6
  t=        11.50000    5    2
C      -0.053426071     -0.033312949     -0.235576279
N       0.032859095     -0.060518033      1.546396342
H       1.006149415      0.147448304     -0.536094489
H       0.898622696      0.485419858      2.061341317
H      -0.864114908      0.323958114      1.814156304
H      -0.861095526      0.280749668     -0.748621469
           6
  t=        12.00000    5    2
C      -0.051343811     -0.035997084     -0.254653550
N       0.035428772     -0.065816273      1.561408573
H       0.954961958      0.169000879     -0.504091462
H       0.869843932      0.504191511      2.045652491
H      -0.851551874      0.371303160      1.828980294
H      -0.854190258      0.298656541     -0.761196324
           6
  t=        12.50000    5    2
C      -0.048465291     -0.039136625     -0.272427202
N       0.038071304     -0.071125608      1.576591132
H       0.906321574      0.192294473     -0.475672993
H       0.836175239      0.520939331      2.022854613
H      -0.838317512      0.419101145      1.842275512
H      -0.856106680      0.321969876     -0.779437362
           6
  t=        13.00000    5    2
C      -0.045599148     -0.042772978     -0.288936759
N       0.040685988     -0.076320379      1.591922453
H       0.866770128      0.218837934     -0.451884910
H       0.799739592      0.535435380      1.994212223
H      -0.824361644      0.465959476      1.853259156
H      -0.864532285      0.349548439     -0.802010250
           6
  t=        13.50000    5    2
C      -0.043764089     -0.046881119     -0.304591573
N       0.043195993     -0.081392108      1.607493999
H       0.843176843      0.250632946     -0.432035067
H       0.763137113      0.548391599      1.961288967
H      -0.809674270      0.511003702      1.860995674
H      -0.875749334      0.379137289     -0.826631961
           6
  t=        14.00000    5    2
C      -0.042367634     -0.050867752     -0.320610795
N       0.045032763     -0.086619536      1.624124910
H       0.834010568      0.284050466     -0.415294205
H       0.730724749      0.563624347      1.922501058
H      -0.793940778      0.552870552      1.864635363
H      -0.892053075      0.408721053     -0.848563442
           6
  t=        14.50000    4    1
C      -0.042379169     -0.054909801     -0.335224170
N       0.046140113     -0.091788039      1.640597926
H       0.843889792      0.323143602     -0.405211427
H       0.705113041      0.580109006      1.880601985
H      -0.777435860      0.589440277      1.864740341
H      -0.908074897      0.436515508     -0.871736297
           6
  t=        15.00000    4    1
C      -0.043612538     -0.059501609     -0.350503556
N       0.046408046     -0.097171491      1.658256528
H       0.871116579      0.371353537     -0.397521693
H       0.685954051      0.600127849      1.834359191
H      -0.757737948      0.622968362      1.863541447
H      -0.924878763      0.464233211     -0.895411529
           6
  t=        15.50000    4    1
C      -0.045671959     -0.064224269     -0.365755338
N       0.045795463     -0.102259890      1.675586873
H       0.906714570      0.422783081     -0.391165669
H       0.675419761      0.623515736      1.790293049
H      -0.735929088      0.650100094      1.862122693
H      -0.938719624      0.489217068     -0.915477598
           6
  t=        16.00000    4    1
C      -0.048187285     -0.068707002     -0.380984658
N       0.044389152     -0.107062065      1.692706394
H       0.944629871      0.474636363     -0.386401190
H       0.673403024      0.649892289      1.747491021
H      -0.712799214      0.670610031      1.860277317
H      -0.948259642      0.510576653     -0.932127808
           6
  t=        16.50000    4    1
C      -0.050886049     -0.072663604     -0.396157757
N       0.042364990     -0.111456936      1.709640578
H       0.980510959      0.524547131     -0.383448598
H       0.678578106      0.677328560      1.705398011
H      -0.689212112      0.684400034      1.858153460
H      -0.952645684      0.527615186     -0.945490951
           6
  t=        17.00000    4    1
C      -0.053547638     -0.075879796     -0.411240074
N       0.039934328     -0.115278408      1.726377875
H       1.011355543      0.570577307     -0.382597022
H       0.689018672      0.703191948      1.663851184
H      -0.666079415      0.691610326      1.856098777
H      -0.951600895      0.539903955     -0.955713733
           6
  t=        17.50000    4    1
C      -0.056009069     -0.078200838     -0.426198115
N       0.037311980     -0.118380016      1.742875161
H       1.035264135      0.611245884     -0.384114519
H       0.702739422      0.724894799      1.623087259
H      -0.644360270      0.692684369      1.854539680
H      -0.945206625      0.547190678     -0.962990864
           6
  t=        18.00000    4    1
C      -0.058153580     -0.079529221     -0.440996685
N       0.034699309     -0.120670694      1.759065187
H       1.051141536      0.645503260     -0.388199223
H       0.717979745      0.740335592      1.583635870
H      -0.625059059      0.688411012      1.853928307
H      -0.933790776      0.549411290     -0.967590683
           6
  t=        18.50000    4    1
C      -0.059889683     -0.079826779     -0.455606341
N       0.032285050     -0.122158872      1.774873664
H       1.058405666      0.672636918     -0.394837556
H       0.733181604      0.748263564      1.546015050
H      -0.609218590      0.680191261      1.854723569
H      -0.917882114      0.546790772     -0.969822057
           6
  t=        19.00000    4    1
C      -0.060992048     -0.078911866     -0.470091186
N       0.030191252     -0.122836153      1.790351932
H       1.056126661      0.691022010     -0.404900275
H       0.747188551      0.747348407      1.511100603
H      -0.597742776      0.668951374      1.857666937
H      -0.898869147      0.539078509     -0.970381585
           6
  t=        19.50000    4    1
C      -0.061369629     -0.076813329     -0.484382788
N       0.028559102     -0.122776664      1.805430604
H       1.044378538      0.700393380     -0.418437753
H       0.759141604      0.737082100      1.479538965
H      -0.591695395      0.656200456      1.863022781
H      -0.877948913      0.526911995     -0.969980410
           6
  t=        20.00000    4    1
C      -0.060917868     -0.073601127     -0.498398298
N       0.027507359     -0.122077401      1.820047025
H       1.023421041      0.700650129     -0.435420137
H       0.768384949      0.717318268      1.451933094
H      -0.592003612      0.643427169      1.870956651
H      -0.856693197      0.511230531     -0.969532850
           6
  t=        20.50000    4    1
C      -0.059519972     -0.069386161     -0.512040277
N       0.027122279     -0.120836315      1.834148462
H       0.993721822      0.691870749     -0.455730853
H       0.774433168      0.688216655      1.428814090
H      -0.599281892      0.631845244      1.881520146
H      -0.837058916      0.493263600     -0.970165624
           6
  t=        21.00000    4    1
C      -0.057062267     -0.064317446     -0.525201771
N       0.027443826     -0.119133662      1.847695326
H       0.956052827      0.674379123     -0.479159177
H       0.776970213      0.650228148      1.410605059
H      -0.613639349      0.622144868      1.894643738
H      -0.821301588      0.474435645     -0.973166500
           6
  t=        21.50000    1    1
C      -0.053471075     -0.058574634     -0.537779707
N       0.028453096     -0.117023773      1.860665251
H       0.911680979      0.648879089     -0.505395434
H       0.775885847      0.604113987      1.397568664
H      -0.634545564      0.614356073      1.910136899
H      -0.811722926      0.456145530     -0.979833785
           6
  t=        22.00000    1    1
C      -0.048687818     -0.052454970     -0.550042501
N       0.030049186     -0.114493744      1.873108148
H       0.862736858      0.616604194     -0.532928155
H       0.771175245      0.550995133      1.390121879
H      -0.660580429      0.608152997      1.928393433
H      -0.811164313      0.439724582     -0.989987223
           6
  t=        22.50000    1    1
C      -0.043020318     -0.046091082     -0.561613284
N       0.032096353     -0.111629241      1.885009112
H       0.812562030      0.579940516     -0.562456927
H       0.763615840      0.492415938      1.387523210
H      -0.690283953      0.602292212      1.948298439
H      -0.819653492      0.425255210     -1.005351032
           6
  t=        23.00000    1    1
C      -0.036949781     -0.039761588     -0.572515131
N       0.034380654     -0.108491349      1.896444104
H       0.766402877      0.542565440     -0.593645023
H       0.754377717      0.430377354      1.388929010
H      -0.721667826      0.595663551      1.969346756
H      -0.836892974      0.412335486     -1.025693841
           6
  t=        23.50000    1    1
C      -0.031232139     -0.033820884     -0.582803300
N       0.036632640     -0.105178345      1.907539300
H       0.731570095      0.509645391     -0.626456900
H       0.745340100      0.367284085      1.392869413
H      -0.752695731      0.587266960      1.990969051
H      -0.861364465      0.399979529     -1.050107159
           6
  t=        24.00000    1    1
C      -0.026765388     -0.028652210     -0.592526949
N       0.038542580     -0.101818962      1.918469872
H       0.716285997      0.486906274     -0.661391632
H       0.739065393      0.305711870      1.397241735
H      -0.781480613      0.576354581      2.012570966
H      -0.890743912      0.386985395     -1.077243463
           6
  t=        24.50000    1    1
C      -0.024263387     -0.024491414     -0.601713426
N       0.039797288     -0.098544431      1.929437262
H       0.726366968      0.478189868     -0.699379926
H       0.738411107      0.247962934      1.399593314
H      -0.806416886      0.562494793      2.033571572
H      -0.922459492      0.372272277     -1.105611736
           6
  t=        25.00000    1    1
C      -0.023956963     -0.021189838     -0.610226696
N       0.040164267     -0.095511643      1.940524428
H       0.761550392      0.482856618     -0.741858028
H       0.745799633      0.195904681      1.398349531
H      -0.826395831      0.545912834      2.053476148
H      -0.953800888      0.354796935     -1.134478779
           6
  t=        25.50000    1    1
C      -0.025481121     -0.018367571     -0.618189322
N       0.039532594     -0.092760624      1.951806393
H       0.815514537      0.496644814     -0.788456946
H       0.761954052      0.149986120      1.392697778
H      -0.840553005      0.526855644      2.071929890
H      -0.982838623      0.334157747     -1.162629222
           6
  t=        26.00000    1    1
C      -0.028232273     -0.015580306     -0.625782748
N       0.037969883     -0.090284839      1.963241684
H       0.879582071      0.514237593     -0.837899005
H       0.785579954      0.109729625      1.383413367
H      -0.848507786      0.505838865      2.088671202
H      -1.008107848      0.310252443     -1.189117804
           6
  t=        26.50000    1    1
C      -0.031655177     -0.012489087     -0.633195673
N       0.035689974     -0.088070438      1.974697083
H       0.946088702      0.531378410     -0.888610317
H       0.813853023      0.074293789      1.372494207
H      -0.850397958      0.483619652      2.103539439
H      -1.028564504      0.283193516     -1.213257901
           6
  t=        27.00000    1    1
C      -0.035347422     -0.008897174     -0.640585819
N       0.032983795     -0.086128662      1.986001687
H       1.009562527      0.545385825     -0.939188757
H       0.843402268      0.042941417      1.362378807
H      -0.846901179      0.461175237      2.116484227
H      -1.043521753      0.253236010     -1.234587190
           6
  t=        27.50000    1    1
C      -0.039046221     -0.004718152     -0.648067742
N       0.030160938     -0.084506384      1.996993155
H       1.066513434      0.554827640     -0.988561141
H       0.871126751      0.015210175      1.355282229
H      -0.839240199      0.439680602      2.127569235
H      -1.052596311      0.220721791     -1.252838000
           6
  t=        28.00000    4    1
C      -0.042582841      0.000061947     -0.655715763
N       0.027517323     -0.083278922      2.007541127
H       1.114886432      0.559090020     -1.035961688
H       0.894610161     -0.009132165      1.352863977
H      -0.829150032      0.420459958      2.136980764
H      -1.055702557      0.186052907     -1.267925694
           6
  t=        28.50000    4    1
C      -0.045759882      0.005371050     -0.663609622
N       0.025390782     -0.082343702      2.017618900
H       1.152891532      0.558173447     -1.080359970
H       0.911757682     -0.031832461      1.355135350
H      -0.819617406      0.403724573      2.144733032
H      -1.053013308      0.150197417     -1.279585745
           6
  t=        29.00000    4    1
C      -0.048561628      0.011221270     -0.671735052
N       0.023940377     -0.081999478      2.027082224
H       1.180331346      0.551891704     -1.121778228
H       0.921863805     -0.051116316      1.363864505
H      -0.811850762      0.392047819      2.151393239
H      -1.044814467      0.113000539     -1.288296911
           6
  t=        29.50000    4    1
C      -0.050898820      0.017560926     -0.680093068
N       0.023322724     -0.082327439      2.035892170
H       1.196810786      0.540408842     -1.159856829
H       0.924450038     -0.066867644      1.379278965
H      -0.807592752      0.386496127      2.157261413
H      -1.031728624      0.074859133     -1.294393357
           6
  t=        30.00000    4    1
C      -0.052676903      0.024335401     -0.688668845
N       0.023594028     -0.083373491      2.044042254
H       1.202122658      0.523955556     -1.194269775
H       0.919580630     -0.078941464      1.401244323
H      -0.807724165      0.387627794      2.162542508
H      -1.014638839      0.036127389     -1.298358085
           6
  t=        30.50000    4    1
C      -0.053791529      0.031492392     -0.697434259
N       0.024688304     -0.085137952      2.051561914
H       1.196177432      0.502800723     -1.224702108
H       0.907885155     -0.087177904      1.429260565
H      -0.811982048      0.395362603      2.167302343
H      -0.994673767     -0.002916079     -1.300815748
           6
  t=        31.00000    4    1
C      -0.054131173      0.038985277     -0.706350691
N       0.026413803     -0.087576979      2.058520223
H       1.178989545      0.477248306     -1.250845238
H       0.890666682     -0.091411879      1.462399029
H      -0.819019770      0.409008810      2.171480808
H      -0.973161201     -0.042102579     -1.302505723
           6
  t=        31.50000    4    1
C      -0.053587195      0.046774528     -0.715373770
N       0.028468243     -0.090615275      2.065028827
H       1.150697841      0.447649510     -1.272408274
H       0.870064779     -0.091478251      1.499207656
H      -0.826785506      0.427440858      2.174946562
H      -0.951524926     -0.081398471     -1.304215036
           6
  t=        32.00000    4    1
C      -0.052072856      0.054825653     -0.724460023
N       0.030462941     -0.094164319      2.071241975
H       1.111631300      0.414428023     -1.289150371
H       0.849206998     -0.087201396      1.537645021
H      -0.833013182      0.449338401      2.177562421
H      -0.931119854     -0.120901981     -1.306666771
           6
  t=        32.50000    4    1
C      -0.049550991      0.063102008     -0.733573141
N       0.031955032     -0.098140412      2.077346564
H       1.062438365      0.378119750     -1.300947675
H       0.832168408     -0.078358794      1.575169924
H      -0.835632605      0.473397412      2.179233178
H      -0.913028867     -0.160794129     -1.310377504
           6
  t=        33.00000    4    1
C      -0.046068549      0.071552337     -0.742684523
N       0.032504570     -0.102478782      2.083529968
H       1.004314990      0.339427627     -1.307921655
H       0.823430931     -0.064630197      1.609165736
H      -0.833023039      0.498472655      2.179928893
H      -0.897878804     -0.201242523     -1.315523180
           6
  t=        33.50000    1    1
C      -0.041789103      0.080102331     -0.751764355
N       0.031775123     -0.107120996      2.089938122
H       0.939323437      0.299263394     -1.310663635
H       0.826651739     -0.045776216      1.637626810
H      -0.824196608      0.523534154      2.179647892
H      -0.885754848     -0.242295429     -1.321887814
           6
  t=        34.00000    1    1
C      -0.036984972      0.088779973     -0.760872149
N       0.029707677     -0.111874194      2.096824314
H       0.870335173      0.258296059     -1.310767762
H       0.842928415     -0.023418382      1.659234133
H      -0.809635276      0.546848191      2.178027447
H      -0.876081661     -0.284279427     -1.329006208
           6
  t=        34.50000    1    1
C      -0.032235341      0.097266891     -0.769710913
N       0.026352474     -0.116899060      2.103819154
H       0.803486461      0.218512808     -1.310784073
H       0.870691430      0.004648344      1.676450662
H      -0.788254101      0.569284924      2.175714233
H      -0.868312721     -0.326233562     -1.335841740
           6
  t=        35.00000    1    1
C      -0.028250219      0.105387211     -0.777984968
N       0.022037422     -0.122146365      2.110732631
H       0.746397123      0.181319543     -1.315168939
H       0.905848416      0.037873240      1.691680385
H      -0.760516556      0.590760437      2.172899155
H      -0.861614150     -0.367518951     -1.341413466
           6
  t=        35.50000    1    1
C      -0.025795904      0.113003408     -0.785298707
N       0.017169460     -0.127545802      2.117368517
H       0.707447262      0.147570215     -1.329532607
H       0.943582091      0.075171204      1.707392010
H      -0.727259648      0.611423797      2.169802986
H      -0.855241734     -0.407392917     -1.344784561
           6
  t=        36.00000    1    1
C      -0.025398098      0.120058723     -0.791340678
N       0.012138275     -0.133017540      2.123568892
H       0.692363766      0.117165857     -1.358352649
H       0.979585827      0.115121581      1.725514196
H      -0.689595763      0.631619070      2.166666523
H      -0.848658342     -0.445113254     -1.345161135
           6
  t=        36.50000    1    1
C      -0.027061518      0.126553935     -0.796125272
N       0.007269509     -0.138483434      2.129226707
H       0.700912970      0.089411464     -1.402051685
H       1.010594697      0.156184565      1.747276645
H      -0.648796922      0.651824852      2.163738330
H      -0.841561775     -0.480018842     -1.341940100
           6
  t=        37.00000    1    1
C      -0.030316654      0.132477838     -0.800024690
N       0.002813269     -0.143870593      2.134280059
H       0.727414139      0.063884738     -1.456610104
H       1.034414994      0.196846941      1.773301086
H      -0.606166458      0.672559042      2.161263166
H      -0.833839705     -0.511571389     -1.334715730
           6
  t=        37.50000    1    1
C      -0.034531028      0.137779010     -0.803555275
N      -0.001052390     -0.149107157      2.138701645
H       0.764378230      0.040782895     -1.516121079
H       1.049750921      0.235696387      1.803757360
H      -0.562914058      0.694246894      2.159470410
H      -0.825502398     -0.539367212     -1.323266681
           6
  t=        38.00000    1    1
C      -0.039155999      0.142390416     -0.807167115
N      -0.004213941     -0.154113847      2.142489279
H       0.805402691      0.020635611     -1.575310741
H       1.056009389      0.271452236      1.838502664
H      -0.520063493      0.717073574      2.158564770
H      -0.816640372     -0.563143857     -1.307539274
           6
  t=        38.50000    1    1
C      -0.043798282      0.146258963     -0.811166812
N      -0.006613408     -0.158797083      2.145659068
H       0.846013309      0.003963978     -1.630472154
H       1.053146320      0.302980627      1.877182585
H      -0.478421564      0.740873796      2.158719869
H      -0.807416859     -0.582791322     -1.287632746
           6
  t=        39.00000    1    1
C      -0.048194371      0.149359204     -0.815730385
N      -0.008238581     -0.163048045      2.148240738
H       0.883369698     -0.008866489     -1.679329025
H       1.041570190      0.329308861      1.919302132
H      -0.438615104      0.765104524      2.160072247
H      -0.798080297     -0.598368375     -1.263782174
           6
  t=        39.50000    1    1
C      -0.052164553      0.151695261     -0.820941432
N      -0.009113585     -0.166749898      2.150274530
H       0.915730312     -0.017654870     -1.720601359
H       1.022094800      0.349648045      1.964276360
H      -0.401172225      0.788922698      2.162714565
H      -0.788979421     -0.610116408     -1.236338991
           6
  t=        40.00000    4    1
C      -0.055576325      0.153298335     -0.826825491
N      -0.009292352     -0.169791142      2.151808932
H       0.942021977     -0.022328327     -1.753622288
H       0.995934170      0.363428072      2.011471689
H      -0.366605335      0.811335852      2.166685922
H      -0.780571033     -0.618466436     -1.205745192
           6
  t=        40.50000    4    1
C      -0.058561697      0.154518278     -0.832881501
N      -0.009158683     -0.172373621      2.153078823
H       0.964218952     -0.024824725     -1.781458471
H       0.967963487      0.373399048      2.058170274
H      -0.334696560      0.831947706      2.171201248
H      -0.773017924     -0.625195561     -1.174660745
           6
  t=        41.00000    4    1
C      -0.060788756      0.155123823     -0.839585055
N      -0.008503843     -0.174137664      2.153956806
H       0.979180649     -0.023281651     -1.800577986
H       0.936804993      0.376402482      2.105904469
H      -0.306809329      0.849331179      2.176934270
H      -0.767290612     -0.629824343     -1.141390764
           6
  t=        41.50000    4    1
C      -0.062177174      0.155189618     -0.846912280
N      -0.007446589     -0.175057524      2.154494216
H       0.986569673     -0.017801969     -1.810947639
H       0.904718869      0.372653947      2.154239092
H      -0.283582056      0.862887281      2.183726073
H      -0.763979890     -0.633113057     -1.106371866
           6
  t=        42.00000    4    1
C      -0.062659903      0.154791890     -0.854842313
N      -0.006128625     -0.175156721      2.154734910
H       0.986136264     -0.008522212     -1.812596253
H       0.874295964      0.362701539      2.202935951
H      -0.265653575      0.872362566      2.191342871
H      -0.763617426     -0.635800645     -1.069961034
           6
  t=        42.50000    4    1
C      -0.062190144      0.153998179     -0.863362224
N      -0.004713724     -0.174529320      2.154707984
H       0.977702345      0.004389727     -1.805596210
H       0.848219502      0.347565438      2.252043993
H      -0.253434297      0.878002475      2.199489937
H      -0.766579684     -0.638482039     -1.032398321
           6
  t=        43.00000    4    1
C      -0.060751343      0.152857954     -0.872465530
N      -0.003388552     -0.173351544      2.154417881
H       0.961178728      0.020726388     -1.790081105
H       0.828948798      0.328926959      2.301958242
H      -0.246779003      0.880523638      2.207884517
H      -0.772985520     -0.641488278     -0.993801348
           6
  t=        43.50000    4    1
C      -0.058374207      0.151408133     -0.882271837
N      -0.002300134     -0.171543485      2.153911239
H       0.936764748      0.040292222     -1.766108342
H       0.819225933      0.306966272      2.353545305
H      -0.246303236      0.878441482      2.216080313
H      -0.782752333     -0.644869204     -0.953756867
           6
  t=        44.00000    4    1
C      -0.055134265      0.149651590     -0.892737827
N      -0.001538700     -0.169165352      2.153172641
H       0.904734778      0.062737123     -1.734208529
H       0.820200860      0.282273355      2.407527950
H      -0.251895017      0.871962701      2.223692388
H      -0.795263479     -0.648269074     -0.912373696
           6
  t=        44.50000    4    1
C      -0.051173319      0.147574019     -0.903778067
N      -0.001088616     -0.166239599      2.152203521
H       0.865832736      0.087626910     -1.695334506
H       0.831302644      0.254782320      2.464301355
H      -0.263192358      0.861425382      2.230421678
H      -0.809582702     -0.651043577     -0.869832254
           6
  t=        45.00000    1    1
C      -0.046721384      0.145154232     -0.915235011
N      -0.000827315     -0.162763070      2.151041662
H       0.821632122      0.114444588     -1.651159380
H       0.850276806      0.223904627      2.523606775
H      -0.279637285      0.847335769      2.236106469
H      -0.824551264     -0.652384988     -0.826439827
           6
  t=        45.50000    1    1
C      -0.042074671      0.142484584     -0.927091365
N      -0.000556022     -0.158914414      2.149788681
H       0.775006034      0.142711460     -1.604492359
H       0.872046065      0.190105103      2.585369580
H      -0.298789033      0.831430951      2.241434330
H      -0.839640665     -0.652633924     -0.781617999
           6
  t=        46.00000    1    1
C      -0.037821775      0.139423645     -0.938679877
N      -0.000068552     -0.154554193      2.148518782
H       0.731048143      0.171931730     -1.559797088
H       0.894751261      0.151764256      2.647227833
H      -0.321775863      0.813602975      2.245880763
H      -0.852813641     -0.649820605     -0.736992517
           6
  t=        46.50000    1    1
C      -0.034674035      0.135922548     -0.949435677
N       0.000829672     -0.149763650      2.147333845
H       0.697083721      0.202130915     -1.523191121
H       0.915089469      0.108889732      2.707509155
H      -0.348004109      0.794941551      2.249764293
H      -0.862919935     -0.643357250     -0.693233372
           6
  t=        47.00000    1    1
C      -0.033402316      0.131889493     -0.958761214
N       0.002296602     -0.144660951      2.146321361
H       0.681404942      0.234109133     -1.501172612
H       0.930355846      0.061939344      2.764592954
H      -0.376974295      0.776602126      2.253534565
H      -0.869062451     -0.632922320     -0.651001990
           6
  t=        47.50000    1    1
C      -0.034512469      0.127213432     -0.966287353
N       0.004447335     -0.139379108      2.145546236
H       0.689478987      0.269184229     -1.497598678
H       0.938527386      0.011702051      2.817073977
H      -0.408277041      0.759617898      2.257722698
H      -0.870670844     -0.618485495     -0.610864186
           6
  t=        48.00000    1    1
C      -0.037928805      0.121860662     -0.972093472
N       0.007353657     -0.134040273      2.145050492
H       0.720216360      0.308042446     -1.511143429
H       0.938212946     -0.040844618      2.863829565
H      -0.441535058      0.744685642      2.262878695
H      -0.867540404     -0.600308805     -0.573211941
           6
  t=        48.50000    1    1
C      -0.043059090      0.115945596     -0.976623311
N       0.011044557     -0.128734746      2.144857219
H       0.766737918      0.349861485     -1.536353786
H       0.928554449     -0.094655590      2.904027289
H      -0.476310887      0.731996148      2.269509040
H      -0.859825777     -0.578913424     -0.538209658
           6
  t=        49.00000    1    1
C      -0.049151579      0.109689368     -0.980409744
N       0.015506939     -0.123511246      2.144975975
H       0.820591587      0.392746688     -1.566954178
H       0.909130152     -0.148703241      2.937103905
H      -0.512020985      0.721184998      2.278023692
H      -0.848005651     -0.555024011     -0.505767587
           6
  t=        49.50000    1    1
C      -0.055559792      0.103334964     -0.983893851
N       0.020688652     -0.118379047      2.145406614
H       0.874864741      0.434682557     -1.598011688
H       0.879879572     -0.202033905      2.962744994
H      -0.547904638      0.711419166      2.288708646
H      -0.832840538     -0.529510029     -0.475536325
           6
  t=        50.00000    1    1
C      -0.061809246      0.097097151     -0.987389724
N       0.026503745     -0.113318975      2.146141220
H       0.924926368      0.474072153     -1.626340814
H       0.841060515     -0.253803619      2.980877625
H      -0.583056008      0.701584116      2.301716152
H      -0.815318413     -0.503327581     -0.446930865
           6
  t=        50.50000    1    1
C      -0.067567269      0.091150925     -0.991112747
N       0.032838914     -0.108296495      2.147163189
H       0.967979492      0.509814385     -1.650119948
H       0.793237641     -0.303309295      2.991690028
H      -0.616503431      0.690493578      2.317068969
H      -0.796565424     -0.477455888     -0.419188579
           6
  t=        51.00000    1    1
C      -0.072600910      0.085635799     -0.995211572
N       0.039559704     -0.103271248      2.148442795
H       1.002423728      0.541182030     -1.668419234
H       0.737293619     -0.350032312      2.995688171
H      -0.647306886      0.677061370      2.334674588
H      -0.777709412     -0.452822061     -0.391469761
           6
  t=        51.50000    1    1
C      -0.076751561      0.080661939     -0.999785680
N       0.046514473     -0.098201296      2.149931018
H       1.027374135      0.567670308     -1.680850271
H       0.674454652     -0.393702127      2.993776640
H      -0.674639902      0.660420492      2.354333530
H      -0.759699673     -0.430219320     -0.363002322
           6
  t=        52.00000    1    1
C      -0.079927201      0.076318855     -1.004888761
N       0.053537881     -0.093041546      2.151552411
H       1.042370651      0.588853189     -1.687347525
H       0.606296931     -0.434385056      2.987348490
H      -0.697851713      0.639989003      2.375750523
H      -0.743101459     -0.410265681     -0.333262033
           6
  t=        52.50000    1    1
C      -0.082123335      0.072685045     -1.010556375
N       0.060458977     -0.087737934      2.153203769
H       1.047319993      0.604259703     -1.687899321
H       0.534668530     -0.472582665      2.978319184
H      -0.716512697      0.615483753      2.398565929
H      -0.727777472     -0.393391302     -0.301958990
           6
  t=        53.00000    1    1
C      -0.083424877      0.069753548     -1.016871369
N       0.067125995     -0.082222411      2.154767466
H       1.042442098      0.613718096     -1.682150415
H       0.461431974     -0.509307456      2.968995885
H      -0.730449534      0.586887130      2.422357837
H      -0.712863756     -0.379256930     -0.268712944
           6
  t=        53.50000    1    1
C      -0.083919255      0.067420925     -1.023868477
N       0.073433157     -0.076422076      2.156132987
H       1.027896653      0.617469511     -1.669791057
H       0.388156493     -0.545974916      2.961637474
H      -0.739773999      0.554490233      2.446601878
H      -0.697466734     -0.366760617     -0.233619011
           6
  t=        54.00000    1    1
C      -0.083690476      0.065576842     -1.031493877
N       0.079335519     -0.070287070      2.157238790
H       1.003831519      0.615783009     -1.650790998
H       0.315882648     -0.584004235      2.957774924
H      -0.744897604      0.518933076      2.470726487
H      -0.680738579     -0.354771257     -0.197452636
           6
  t=        54.50000    1    1
C      -0.082831740      0.064124665     -1.039637970
N       0.084848212     -0.063829613      2.158113951
H       0.970539752      0.608915568     -1.625345455
H       0.245105114     -0.624271465      2.957612659
H      -0.746520969      0.481199287      2.494185859
H      -0.661866953     -0.342333039     -0.161386184
           6
  t=        55.00000    1    1
C      -0.081451321      0.062975871     -1.048156494
N       0.090023220     -0.057146563      2.158883146
H       0.928613646      0.597214587     -1.593891883
H       0.176052590     -0.666743289      2.959916416
H      -0.745592892      0.442554637      2.516529528
H      -0.640157098     -0.328692598     -0.126747459
           6
  t=        55.50000    1    1
C      -0.079686531      0.062037421     -1.056876684
N       0.094916906     -0.050407122      2.159727451
H       0.879182138      0.581277826     -1.557210165
H       0.109061355     -0.710539968      2.962510494
H      -0.743232767      0.404433904      2.537456800
H      -0.615103040     -0.313303500     -0.094853195
           6
  t=        56.00000    1    1
C      -0.077733213      0.061191024     -1.065591511
N       0.099567794     -0.043814565      2.160829482
H       0.824296980      0.562198091     -1.516600222
H       0.044761303     -0.754321708      2.963020299
H      -0.740607746      0.368292738      2.556836730
H      -0.586422680     -0.295821138     -0.066900348
           6
  t=        56.50000    1    1
C      -0.075892181      0.060261771     -1.074045927
N       0.103989264     -0.037565647      2.162334978
H       0.767496253      0.541927347     -1.474115833
H      -0.015976495     -0.796705438      2.959431283
H      -0.738778514      0.335458765      2.574680508
H      -0.554068608     -0.276091763     -0.043893541
           6
  t=        57.00000    4    1
C      -0.074620641      0.058982122     -1.081925942
N       0.108170301     -0.031824205      2.164340818
H       0.714412319      0.523700871     -1.432744209
H      -0.072201273     -0.836521013      2.950316643
H      -0.738547413      0.307020498      2.591077764
H      -0.518224719     -0.254147362     -0.026593055
           6
  t=        57.50000    4    1
C      -0.074531745      0.056987292     -1.088939978
N       0.112054719     -0.026724828      2.166805380
H       0.673194852      0.512404910     -1.396371191
H      -0.123082871     -0.872693885      2.935111107
H      -0.740277258      0.283617408      2.606433506
H      -0.479426660     -0.230374757     -0.013846255
           6
  t=        58.00000    4    1
C      -0.076263361      0.053860117     -1.094716412
N       0.115612084     -0.022335644      2.169852935
H       0.651605378      0.513052724     -1.368346699
H      -0.167823359     -0.904795335      2.913095895
H      -0.744035250      0.265902665      2.620463493
H      -0.438148839     -0.204955391     -0.007451735
           6
  t=        58.50000    4    1
C      -0.080138006      0.049361651     -1.099133060
N       0.118773755     -0.018705135      2.173493905
H       0.654289468      0.529019649     -1.350368572
H      -0.205850733     -0.932399990      2.884157934
H      -0.749436390      0.254121814      2.633118154
H      -0.395199961     -0.178416801     -0.007148614
           6
  t=        59.00000    4    1
C      -0.085907260      0.043611362     -1.102322723
N       0.121462186     -0.015857573      2.177728457
H       0.679256040      0.559550045     -1.341604309
H      -0.236754813     -0.955213997      2.848393080
H      -0.755804192      0.248319833      2.644280702
H      -0.351556050     -0.151427398     -0.012169567
           6
  t=        59.50000    4    1
C      -0.092876311      0.037041758     -1.104586057
N       0.123598109     -0.013799723      2.182548560
H       0.719279247      0.600242255     -1.339742150
H      -0.260268476     -0.973037710      2.806044025
H      -0.762290867      0.248395148      2.653804406
H      -0.308277802     -0.124739430     -0.021230867
           6
  t=        60.00000    4    1
C      -0.100261860      0.030175780     -1.106258277
N       0.125107577     -0.012524601      2.187937130
H       0.766051476      0.645622183     -1.342508667
H      -0.276254500     -0.985753645      2.757472702
H      -0.767991040      0.254137560      2.661554764
H      -0.266399354     -0.099109689     -0.032604660
           6
  t=        60.50000    4    1
C      -0.107433256      0.023455953     -1.107639528
N       0.125928715     -0.012011831      2.193865669
H       0.812946334      0.691098452     -1.348338331
H      -0.284708162     -0.993342458      2.703160628
H      -0.772035612      0.265246987      2.667444438
H      -0.226817483     -0.075218214     -0.044280890
           6
  t=        61.00000    4    1
C      -0.113966689      0.017193906     -1.108977202
N       0.126018192     -0.012224453      2.200291231
H       0.855584062      0.733502607     -1.356335783
H      -0.285783810     -0.995932792      2.643724109
H      -0.773657025      0.281337970      2.671460428
H      -0.190209825     -0.053606534     -0.054215894
           6
  t=        61.50000    4    1
C      -0.119608130      0.011586807     -1.110458882
N       0.125357948     -0.013102279      2.207153752
H       0.891360208      0.770865307     -1.366038638
H      -0.279844780     -0.993884842      2.579936865
H      -0.772233906      0.301930517      2.673678385
H      -0.157003706     -0.034649025     -0.060653326
           6
  t=        62.00000    4    1
C      -0.124218803      0.006750701     -1.112202823
N       0.123962149     -0.014552327      2.214374839
H       0.918826321      0.802031231     -1.377219095
H      -0.267530428     -0.987908172      2.512742874
H      -0.767321090      0.326434941      2.674265533
H      -0.127405685     -0.018564771     -0.062434958
           6
  t=        62.50000    4    1
C      -0.127729387      0.002750525     -1.114251945
N       0.121883446     -0.016438314      2.221859863
H       0.937220103      0.826344638     -1.389761327
H      -0.249821178     -0.979195156      2.443233025
H      -0.758671577      0.354139523      2.673473213
H      -0.101476989     -0.005460666     -0.059192982
           6
  t=        63.00000    4    1
C      -0.130107887     -0.000378112     -1.116578968
N       0.119216218     -0.018574517      2.229505623
H       0.946166319      0.843439996     -1.403592590
H      -0.228062830     -0.969507276      2.372553673
H      -0.746256984      0.384211454      2.671620583
H      -0.079217265      0.004618563     -0.051356569
           6
  t=        63.50000    4    1
C      -0.131340153     -0.002615299     -1.119103973
N       0.116092375     -0.020733882      2.237214081
H       0.945502496      0.853115478     -1.418646745
H      -0.203891136     -0.961085817      2.301736571
H      -0.730284093      0.415720295      2.669070410
H      -0.060622806      0.011654699     -0.039975759
           6
  t=        64.00000    4    1
C      -0.131420276     -0.003949688     -1.121718008
N       0.112668006     -0.022679454      2.244907089
H       0.935186107      0.855263456     -1.434848199
H      -0.179035916     -0.956251968      2.231518493
H      -0.711204440      0.447673238      2.666198836
H      -0.045708809      0.015641834     -0.026450555
           6
  t=        64.50000    4    1
C      -0.130392142     -0.004406824     -1.124366155
N       0.109103069     -0.024240336      2.252512007
H       0.915502353      0.850023325     -1.451989668
H      -0.154879909     -0.956598538      2.162043273
H      -0.689796881      0.479263389      2.663067346
H      -0.034298862      0.016769990     -0.010838164
           6
  t=        65.00000    4    1
C      -0.128361555     -0.004065408     -1.127014496
N       0.105513242     -0.025343117      2.259949895
H       0.887294042      0.837989718     -1.469707944
H      -0.132442861     -0.962214868      2.093836397
H      -0.666804968      0.509507573      2.660323357
H      -0.025819966      0.015434112      0.006018269
           6
  t=        65.50000    1    1
C      -0.125375157     -0.002959785     -1.129574290
N       0.102020376     -0.026041846      2.267170618
H       0.850986576      0.819432041     -1.487822135
H      -0.112340089     -0.971662705      2.027311987
H      -0.643321255      0.537675973      2.658248132
H      -0.020127331      0.011816260      0.022882445
           6
  t=        66.00000    1    1
C      -0.121962628     -0.001517435     -1.132097637
N       0.098607770     -0.026619336      2.274269887
H       0.810997760      0.797925220     -1.506058768
H      -0.093458944     -0.981736081      1.961765622
H      -0.620013183      0.564646666      2.656568505
H      -0.015545111      0.007276920      0.039748979
           6
  t=        66.50000    4    1
C      -0.118062033      0.000330779     -1.134743187
N       0.095476884     -0.027136051      2.280857275
H       0.766556048      0.772710254     -1.523603220
H      -0.077629340     -0.989604659      1.900603688
H      -0.598127561      0.588019475      2.655452766
H      -0.011761633      0.002161829      0.059542304
           6
  t=        67.00000    4    1
C      -0.114196978      0.002200142     -1.137514036
N       0.092617377     -0.027708559      2.286849650
H       0.722422243      0.747389720     -1.540015593
H      -0.063946310     -0.994677856      1.844354138
H      -0.578011772      0.608670928      2.654305092
H      -0.007717096     -0.002398360      0.083082372
           6
  t=        67.50000    4    1
C      -0.110046713      0.004307598     -1.140255657
N       0.090216603     -0.028590179      2.292024002
H       0.675975599      0.720115673     -1.556209895
H      -0.053552201     -0.993432662      1.794887667
H      -0.561510311      0.626359432      2.653211845
H      -0.004226216     -0.006900499      0.110584763
           6
  t=        68.00000    4    1
C      -0.105691259      0.006566014     -1.142708458
N       0.088333224     -0.029890286      2.296375047
H       0.628505415      0.692068104     -1.573166729
H      -0.046493246     -0.985012594      1.752688615
H      -0.549340773      0.641726242      2.652079753
H      -0.001676730     -0.011465145      0.139621489
           6
  t=        68.50000    4    1
C      -0.101329753      0.008783982     -1.144671150
N       0.086996638     -0.031661691      2.299898106
H       0.582356933      0.665427726     -1.592174910
H      -0.042861412     -0.969028644      1.718130221
H      -0.541776572      0.655063836      2.650567660
H      -0.000085903     -0.015941658      0.169117591
           6
  t=        69.00000    4    1
C      -0.097228738      0.010703835     -1.145973859
N       0.086206246     -0.033902847      2.302598048
H       0.540488509      0.643057874     -1.614966434
H      -0.042740055     -0.945560339      1.691356059
H      -0.538685176      0.666359100      2.648135482
H       0.000720776     -0.020054245      0.199111249
           6
  t=        69.50000    1    1
C      -0.093653176      0.012060701     -1.146488153
N       0.085933441     -0.036561151      2.304505543
H       0.505759339      0.627891348     -1.643560750
H      -0.046162922     -0.915144402      1.672139085
H      -0.539580908      0.675359534      2.644109362
H       0.000984488     -0.023523554      0.230567479
           6
  t=        70.00000    1    1
C      -0.090575452      0.012788143     -1.145820035
N       0.086118013     -0.039625779      2.305964510
H       0.478398411      0.620872455     -1.680722911
H      -0.052809977     -0.878049338      1.658461534
H      -0.543828500      0.682489348      2.637783664
H       0.000028711     -0.026808937      0.259504915
           6
  t=        70.50000    1    1
C      -0.088136748      0.012777890     -1.144092707
N       0.086705891     -0.042892861      2.306997762
H       0.459430527      0.622933058     -1.726115479
H      -0.062655100     -0.836473264      1.649733698
H      -0.550513377      0.687051118      2.628780167
H      -0.001679735     -0.029490205      0.287704044
           6
  t=        71.00000    1    1
C      -0.086143507      0.012191535     -1.141176329
N       0.087640227     -0.046212051      2.307863936
H       0.446715774      0.632082912     -1.778720435
H      -0.075541586     -0.792453363      1.643964179
H      -0.558894935      0.689097476      2.616965851
H      -0.004413029     -0.031605585      0.311131664
           6
  t=        71.50000    1    1
C      -0.084380799      0.011249020     -1.137171539
N       0.088881721     -0.049397287      2.308768652
H       0.437644555      0.645565259     -1.836112500
H      -0.091599254     -0.748483097      1.638986067
H      -0.568281829      0.688532537      2.602311474
H      -0.008136173     -0.033012990      0.327900012
           6
  t=        72.00000    1    1
C      -0.082654324      0.010174170     -1.132279333
N       0.090411671     -0.052256780      2.309904645
H       0.429782903      0.660571248     -1.895295349
H      -0.111187364     -0.707192714      1.632395064
H      -0.578089431      0.685296460      2.584933041
H      -0.012694236     -0.033543322      0.337016332
           6
  t=        72.50000    1    1
C      -0.080818428      0.009153333     -1.126713973
N       0.092227278     -0.054635732      2.311437657
H       0.421262095      0.674754874     -1.953398206
H      -0.134772589     -0.670821665      1.621914973
H      -0.587878809      0.679465957      2.565109920
H      -0.017886115     -0.033057449      0.337854998
           6
  t=        73.00000    4    1
C      -0.078780469      0.008321216     -1.120663492
N       0.094326639     -0.056460593      2.313463985
H       0.410848822      0.686409666     -2.008041578
H      -0.162690765     -0.640633290      1.606039637
H      -0.597373881      0.671299456      2.543279770
H      -0.023495390     -0.031469878      0.330005893
           6
  t=        73.50000    4    1
C      -0.076524828      0.007767346     -1.114426249
N       0.096743504     -0.057745927      2.316041341
H       0.398102161      0.694484486     -2.057221813
H      -0.195071990     -0.616487443      1.583993717
H      -0.606724219      0.661125172      2.519601208
H      -0.029456362     -0.029061444      0.314832728
           6
  t=        74.00000    4    1
C      -0.074002803      0.007537333     -1.107988321
N       0.099364631     -0.058624244      2.318968989
H       0.382463745      0.698301970     -2.099920440
H      -0.230992993     -0.597365526      1.557682210
H      -0.615665808      0.649633819      2.495170027
H      -0.035404447     -0.025566018      0.290939575
           6
  t=        74.50000    4    1
C      -0.071228934      0.007641382     -1.101501752
N       0.102095871     -0.059243287      2.322020926
H       0.363992865      0.697734704     -2.135550377
H      -0.269256891     -0.581700065      1.529339283
H      -0.624225074      0.637417134      2.470750114
H      -0.041088077     -0.021084126      0.259691807
           6
  t=        75.00000    4    1
C      -0.068247615      0.008052814     -1.095330777
N       0.104670523     -0.059637350      2.324353129
H       0.343160610      0.693336591     -2.164792373
H      -0.308666431     -0.570432222      1.504346319
H      -0.631523955      0.624961679      2.448672062
H      -0.044819487     -0.014920895      0.230122221
           6
  t=        75.50000    4    1
C      -0.065029655      0.008820528     -1.089186026
N       0.107201064     -0.060088696      2.326346796
H       0.319591477      0.684264368     -2.185766000
H      -0.348004823     -0.559216573      1.483723882
H      -0.639227097      0.612721763      2.427664524
H      -0.047685648     -0.007693184      0.191859217
           6
  t=        76.00000    4    1
C      -0.061591132      0.009942944     -1.083140531
N       0.109600944     -0.060707110      2.327879621
H       0.293444973      0.670540178     -2.198117727
H      -0.385793914     -0.547002017      1.469383375
H      -0.647603062      0.601286061      2.408216186
H      -0.049661673      0.000481301      0.144718114
           6
  t=        76.50000    4    1
C      -0.057959851      0.011396322     -1.077341207
N       0.111775545     -0.061552765      2.328832039
H       0.265017301      0.652439981     -2.201871216
H      -0.420744395     -0.533297603      1.462713030
H      -0.656672285      0.591077573      2.390839128
H      -0.050666903      0.009531374      0.090232816
           6
  t=        77.00000    4    1
C      -0.054179597      0.013116576     -1.072023402
N       0.113646507     -0.062655380      2.329113987
H       0.234801678      0.630660259     -2.197686305
H      -0.451893433     -0.517617872      1.464780404
H      -0.666357725      0.582142973      2.375801554
H      -0.050624347      0.019404414      0.031781021
           6
  t=        77.50000    4    1
C      -0.050338637      0.014915753     -1.067550204
N       0.115199775     -0.064033240      2.328662645
H       0.203825531      0.607145681     -2.188115614
H      -0.478959208     -0.498453631      1.476828822
H      -0.676800923      0.573534572      2.362489044
H      -0.049455422      0.030086237     -0.023517471
           6
  t=        78.00000    4    1
C      -0.046515297      0.016577142     -1.064438410
N       0.116559657     -0.065622013      2.327602138
H       0.172945386      0.583797570     -2.175607121
H      -0.503153322     -0.474729281      1.496815419
H      -0.688189777      0.563846736      2.349514310
H      -0.047411749      0.041692025     -0.065355770
           6
  t=        78.50000    4    1
C      -0.042644916      0.018242117     -1.063117803
N       0.117644813     -0.067328388      2.326032518
H       0.141467964      0.558858306     -2.157365515
H      -0.524069757     -0.449652462      1.521534554
H      -0.699630626      0.554802184      2.338670223
H      -0.044739463      0.054484517     -0.091389202
           6
  t=        79.00000    1    1
C      -0.038708631      0.019940479     -1.063849483
N       0.118320262     -0.069102738      2.323947749
H       0.109277430      0.531803704     -2.132653157
H      -0.540681231     -0.425609554      1.549603018
H      -0.710302812      0.547940511      2.331834579
H      -0.041519762      0.068790333     -0.099657285
           6
  t=        79.50000    1    1
C      -0.033861990      0.022051233     -1.065743787
N       0.118865262     -0.071265405      2.321158831
H       0.069554822      0.497473959     -2.098982917
H      -0.558452924     -0.398184865      1.584818558
H      -0.722348593      0.541399650      2.326448725
H      -0.037261333      0.087154056     -0.101853567
           6
  t=        80.00000    1    1
C      -0.028990578      0.024088214     -1.069385649
N       0.118876625     -0.073320417      2.318006650
H       0.029656656      0.462090394     -2.061140445
H      -0.572061306     -0.376294361      1.619554630
H      -0.731824728      0.538904558      2.327593367
H      -0.032440701      0.107442631     -0.088417935
           6
  t=        80.50000    1    1
C      -0.024119109      0.025891722     -1.074147497
N       0.118413112     -0.075178089      2.314617429
H      -0.010065965      0.427576865     -2.023246757
H      -0.582860693     -0.361368013      1.651599077
H      -0.738203145      0.540675998      2.335679002
H      -0.027104901      0.129596803     -0.062653876
           6
  t=        81.00000    1    1
C      -0.019244952      0.027286401     -1.079135130
N       0.117548183     -0.076753328      2.311116678
H      -0.049601211      0.396346704     -1.990932840
H      -0.592425646     -0.354598563      1.678984896
H      -0.740945890      0.546753371      2.350913518
H      -0.021281207      0.153262212     -0.029562280
           6
  t=        81.50000    1    1
C      -0.014316846      0.028105975     -1.083385420
N       0.116346904     -0.077971516      2.307609652
H      -0.089516263      0.370900188     -1.970565403
H      -0.602242495     -0.356787738      1.700298584
H      -0.739490307      0.556923390      2.373257944
H      -0.014993108      0.177896632      0.005745782
           6
  t=        82.00000    1    1
C      -0.009234487      0.028251067     -1.086115362
N       0.114840488     -0.078775600      2.304163487
H      -0.130955182      0.353001427     -1.967241677
H      -0.613340867     -0.368206226      1.714949902
H      -0.733260657      0.570677564      2.402397154
H      -0.008270686      0.202905685      0.039016994
           6
  t=        82.50000    1    1
C      -0.003892253      0.027750645     -1.086950498
N       0.113009788     -0.079132827      2.300798468
H      -0.175118726      0.342853458     -1.982354800
H      -0.626013973     -0.388514534      1.723283872
H      -0.721714891      0.587224991      2.437740362
H      -0.001153590      0.227737763      0.067149796
           6
  t=        83.00000    1    1
C       0.001754374      0.026764899     -1.085983142
N       0.110787216     -0.079038789      2.297492806
H      -0.222478349      0.339023136     -2.012795851
H      -0.639770182     -0.416773941      1.726470882
H      -0.704416966      0.605558882      2.478454402
H       0.006310994      0.251925465      0.088099983
           6
  t=        83.50000    1    1
C       0.007659911      0.025518894     -1.083612367
N       0.108077020     -0.078516985      2.294198215
H      -0.272439180      0.339224108     -2.052629144
H      -0.653536621     -0.451547219      1.726222004
H      -0.681113499      0.624552855      2.523521435
H       0.014073895      0.275090982      0.100661206
           6
  t=        84.00000    1    1
C       0.013715377      0.024227114     -1.080318475
N       0.104783842     -0.077614033      2.290858363
H      -0.323661294      0.341220073     -2.095567351
H      -0.665995906     -0.491058389      1.724453724
H      -0.651793803      0.643057833      2.571809512
H       0.022089654      0.296937619      0.104263159
           6
  t=        84.50000    1    1
C       0.019792166      0.023054653     -1.076523206
N       0.100837429     -0.076392312      2.287422695
H      -0.374586080      0.343287573     -2.136497434
H      -0.675901494     -0.533373380      1.723017455
H      -0.616719106      0.659984610      2.622145201
H       0.030321787      0.317244956      0.098838881
           6
  t=        85.00000    1    1
C       0.025771321      0.022112101     -1.072553367
N       0.096206828     -0.074922248      2.283852937
H      -0.423786365      0.344267876     -2.171845021
H      -0.682282172     -0.576565798      1.723533860
H      -0.576417054      0.674365921      2.673386224
H       0.038746017      0.335874336      0.084758597
           6
  t=        85.50000    1    1
C       0.031553785      0.021463858     -1.068659634
N       0.090903700     -0.073275348      2.280123335
H      -0.470090358      0.343444168     -2.199340285
H      -0.684527916     -0.618849424      1.727323536
H      -0.531643200      0.685394368      2.724487542
H       0.047353503      0.352790482      0.062819536
           6
  t=        86.00000    1    1
C       0.037060145      0.021137146     -1.065051033
N       0.084977810     -0.071518287      2.276217480
H      -0.512579097      0.340398127     -2.217641991
H      -0.682392222     -0.658673538      1.735399355
H      -0.483316798      0.692436780      2.774554728
H       0.056152151      0.368096449      0.034278851
           6
  t=        86.50000    1    1
C       0.042226099      0.021127168     -1.061926005
N       0.078508171     -0.069707769      2.272124553
H      -0.550536990      0.334900664     -2.226020077
H      -0.675948734     -0.694782777      1.748494112
H      -0.432441774      0.695022057      2.822874661
H       0.065171729      0.382082061      0.000899930
           6
  t=        87.00000    4    1
C       0.046997537      0.021399310     -1.059494080
N       0.071593400     -0.067885894      2.267835880
H      -0.583400814      0.326837679     -2.224136459
H      -0.665534509     -0.726254132      1.767103723
H      -0.380030473      0.692812326      2.868927255
H       0.074472485      0.395273349     -0.035015794
           6
  t=        87.50000    4    1
C       0.050708254      0.021786218     -1.058304029
N       0.065335977     -0.066340887      2.263881261
H      -0.606713552      0.317657315     -2.213314912
H      -0.653289615     -0.748399835      1.788741343
H      -0.334466715      0.686339589      2.905719381
H       0.082735580      0.406999601     -0.063491425
           6
  t=        88.00000    4    1
C       0.053939324      0.022337138     -1.058202301
N       0.058837980     -0.064820720      2.259707544
H      -0.624192207      0.305827362     -2.192239898
H      -0.638198953     -0.765168671      1.816344035
H      -0.289045943      0.674785597      2.939640905
H       0.091515509      0.419472100     -0.089312296
           6
  t=        88.50000    4    1
C       0.056659199      0.022983080     -1.059331495
N       0.052204781     -0.063298559      2.255320506
H      -0.635637992      0.291392354     -2.161192706
H      -0.621120071     -0.776915365      1.849724461
H      -0.244354981      0.658125635      2.970719588
H       0.100969399      0.433474350     -0.110419897
           6
  t=        89.00000    4    1
C       0.058846332      0.023664587     -1.061766214
N       0.045548405     -0.061716554      2.250731496
H      -0.640990044      0.274444881     -2.120681312
H      -0.603140147     -0.784531976      1.888467940
H      -0.200838771      0.636442786      2.999117253
H       0.111268570      0.449626920     -0.125322809
           6
  t=        89.50000    4    1
C       0.060498303      0.024346693     -1.065476254
N       0.038987597     -0.059982176      2.245958063
H      -0.640407789      0.255142707     -2.071543534
H      -0.585584860     -0.789495231      1.931959276
H      -0.158791723      0.609924551      3.025105435
H       0.122571481      0.468191974     -0.133443002
           6
  t=        90.00000    4    1
C       0.061647302      0.025025962     -1.070301286
N       0.032644509     -0.057970887      2.241020114
H      -0.634421179      0.233741492     -2.015124927
H      -0.569965631     -0.793828636      1.979468902
H      -0.118363722      0.578862571      3.049038848
H       0.134988842      0.488956222     -0.135245689
           6
  t=        90.50000    4    1
C       0.062383387      0.025725128     -1.075942520
N       0.026631926     -0.055542370      2.235930694
H      -0.624181354      0.210639585     -1.953542780
H      -0.557791441     -0.799873522      2.030314143
H      -0.079571026      0.543649868      3.071325225
H       0.148557682      0.511249350     -0.132077539
           6
  t=        91.00000    4    1
C       0.062886032      0.026477012     -1.081965638
N       0.021028068     -0.052575832      2.230686326
H      -0.611826654      0.186423630     -1.890010926
H      -0.550210244     -0.809793340      2.084036832
H      -0.042305531      0.504775510      3.092383290
H       0.163232398      0.534089963     -0.125808276
           6
  t=        91.50000    4    1
C       0.063457381      0.027307722     -1.087813499
N       0.015846552     -0.049018040      2.225267442
H      -0.600890411      0.161872048     -1.829084304
H      -0.547581527     -0.824893806      2.140463388
H      -0.006345623      0.462811190      3.112577734
H       0.178897447      0.556383157     -0.118436014
           6
  t=        92.00000    4    1
C       0.064530915      0.028231979     -1.092849704
N       0.011020570     -0.044919939      2.219657065
H      -0.596425695      0.137835075     -1.776437726
H      -0.549235493     -0.845094202      2.199532308
H       0.028622356      0.418389602      3.132133453
H       0.195389265      0.577097849     -0.111790928
           6
  t=        92.50000    4    1
C       0.066600177      0.029269535     -1.096478258
N       0.006417011     -0.040435404      2.213871145
H      -0.604180999      0.114923294     -1.737618947
H      -0.553633470     -0.868916760      2.260965129
H       0.062967310      0.372174731      3.151046210
H       0.212521753      0.595384506     -0.107360561
           6
  t=        93.00000    4    1
C       0.070029872      0.030470186     -1.098339633
N       0.001875209     -0.035781749      2.207981075
H      -0.628374613      0.093148150     -1.715785339
H      -0.558856343     -0.894008798      2.324019658
H       0.097061570      0.324833597      3.169019732
H       0.230111639      0.610638522     -0.106221924
           6
  t=        93.50000    4    1
C       0.074849664      0.031913712     -1.098455369
N      -0.002751991     -0.031188107      2.202114393
H      -0.669255558      0.071906002     -1.709992891
H      -0.563126187     -0.917847989      2.387485121
H       0.131229334      0.277023497      3.185462825
H       0.247997209      0.622517628     -0.109032610
           6
  t=        94.00000    4    1
C       0.080732617      0.033672208     -1.097167803
N      -0.007572579     -0.026857864      2.196436586
H      -0.722855023      0.050437533     -1.715884942
H      -0.565126721     -0.938266129      2.449868374
H       0.165708467      0.229394042      3.199554443
H       0.266048758      0.630930809     -0.116058280
           6
  t=        94.50000    4    1
C       0.087175978      0.035772886     -1.094938330
N      -0.012648163     -0.022952628      2.191125841
H      -0.783145363      0.028292568     -1.728052373
H      -0.564090960     -0.953678736      2.509627377
H       0.200636132      0.182595292      3.210357463
H       0.284176672      0.636015155     -0.127210938
           6
  t=        95.00000    4    1
C       0.093695377      0.038190274     -1.092188911
N      -0.017998691     -0.019591218      2.186350812
H      -0.844360817      0.005437162     -1.741884326
H      -0.559742935     -0.963096061      2.565350692
H       0.236055650      0.137276174      3.216943131
H       0.302340371      0.638120133     -0.142080361
           6
  t=        95.50000    4    1
C       0.099915157      0.040858247     -1.089250929
N      -0.023611644     -0.016854491      2.182255039
H      -0.902084024     -0.017880475     -1.754152828
H      -0.552188941     -0.966037456      2.615866023
H       0.271935809      0.094067354      3.218494453
H       0.320558963      0.637796993     -0.159953929
           6
  t=        96.00000    4    1
C       0.105573355      0.043684269     -1.086377433
N      -0.029450519     -0.014789040      2.178946936
H      -0.953319211     -0.041288289     -1.762840928
H      -0.541813880     -0.962438920      2.660312051
H       0.308185768      0.053541102      3.214370638
H       0.338924368      0.635786610     -0.179839794
           6
  t=        96.50000    4    1
C       0.110493663      0.046559569     -1.083769672
N      -0.035458845     -0.013402719      2.176487876
H      -0.996170885     -0.064387815     -1.766778638
H      -0.529189946     -0.952606057      2.698268621
H       0.344621312      0.016102881      3.204139525
H       0.357612147      0.632994916     -0.200512129
           6
  t=        97.00000    4    1
C       0.114556687      0.049366944     -1.081596027
N      -0.041554075     -0.012624572      2.174836609
H      -1.029498963     -0.086797249     -1.765332425
H      -0.514866530     -0.937267745      2.730365701
H       0.380674122     -0.018510101      3.187728009
H       0.376874579      0.630441398     -0.220583309
           6
  t=        97.50000    4    1
C       0.117674103      0.051998112     -1.079993746
N      -0.047714944     -0.012397609      2.173845199
H      -1.052580063     -0.108175135     -1.758171243
H      -0.498771733     -0.916516370      2.757440077
H       0.415982879     -0.051021868      3.166430293
H       0.397033903      0.629098461     -0.238825703
           6
  t=        98.00000    4    1
C       0.119786279      0.054351582     -1.079076927
N      -0.053919768     -0.012913236      2.173827463
H      -1.065046828     -0.128216034     -1.745169033
H      -0.482953959     -0.890790593      2.776273806
H       0.452298491     -0.078316107      3.139153376
H       0.418429023      0.629850926     -0.254056175
           6
  t=        98.50000    4    1
C       0.120859033      0.056353898     -1.078902412
N      -0.060117871     -0.014143952      2.174752753
H      -1.066738367     -0.146636242     -1.726342834
H      -0.468506457     -0.860906500      2.786928314
H       0.490021287     -0.099965387      3.106259255
H       0.441294835      0.633296224     -0.265578456
           6
  t=        99.00000    4    1
C       0.120888348      0.057969595     -1.079468865
N      -0.066256546     -0.016027006      2.176543037
H      -1.057668453     -0.163186003     -1.701812082
H      -0.456558514     -0.827903315      2.789957732
H       0.529558332     -0.115810173      3.068275051
H       0.465682852      0.639614736     -0.273286065
           6
  t=        99.50000    4    1
C       0.119907083      0.059204471     -1.080714676
N      -0.072275835     -0.018464958      2.179084628
H      -1.038043156     -0.177656313     -1.671803526
H      -0.448338276     -0.793126859      2.786392845
H       0.571314683     -0.125865940      3.025746892
H       0.491397877      0.648535809     -0.277683136
           6
  t=       100.00000    4    1
C       0.117992891      0.060102301     -1.082515911
N      -0.078138689     -0.021319503      2.182170723
H      -1.008356136     -0.189897532     -1.636710816
H      -0.444745921     -0.757995031      2.777984071
H       0.615686170     -0.130673903      2.979750611
H       0.517998584      0.659426060     -0.279804554
