           6
  t=         0.00000    9    3
C      -0.006004103     -0.002861991      0.035871960
N       0.009165254     -0.020805311      1.324497353
H       0.956959893     -0.042648921     -0.550208327
H       0.779380663      0.212036736      1.735541112
H      -0.889254622      0.019265231      1.725723801
H      -0.902941399      0.134500490     -0.470843684
           6
  t=         0.50000    9    3
C      -0.005163827     -0.003297905      0.034254591
N       0.007846782     -0.020846155      1.324575299
H       0.931208749     -0.032431496     -0.532466602
H       0.792915559      0.207449161      1.738058698
H      -0.881688728      0.026621749      1.707959178
H      -0.889976765      0.127272604     -0.455164564
           6
  t=         1.00000    9    3
C      -0.004129085     -0.003930859      0.030001938
N       0.006108992     -0.021209918      1.326271102
H       0.905802987     -0.020592591     -0.514799675
H       0.816327820      0.205631960      1.749581170
H      -0.876400123      0.035931263      1.694770796
H      -0.881446887      0.120532748     -0.444092956
           6
  t=         1.50000    9    3
C      -0.003059117     -0.004792542      0.023636666
N       0.004426806     -0.021817686      1.329497181
H       0.883876025     -0.006603395     -0.499223667
H       0.845413329      0.204829759      1.768055221
H      -0.875259459      0.047941650      1.686840256
H      -0.879113151      0.114040460     -0.439247471
           6
  t=         2.00000    8    2
C      -0.002218208     -0.005914226      0.015891917
N       0.003268951     -0.022584942      1.334062131
H       0.869034120      0.010277561     -0.488217066
H       0.875628666      0.203158040      1.791233137
H      -0.879559801      0.063473595      1.684375466
H      -0.884111171      0.107316131     -0.442179716
           6
  t=         2.50000    8    2
C      -0.001208976     -0.007717524      0.005448121
N       0.002422698     -0.023669503      1.340953418
H       0.860123116      0.033826701     -0.483116555
H       0.913162038      0.200931948      1.824812993
H      -0.891552005      0.085501580      1.688543160
H      -0.900999964      0.100506769     -0.456426456
           6
  t=         3.00000    8    2
C       0.000121100     -0.009764002     -0.005239626
N       0.001808155     -0.024751618      1.348642343
H       0.859874444      0.055171513     -0.487081778
H       0.945519397      0.201247343      1.857446679
H      -0.906213959      0.105085605      1.700000267
H      -0.925744997      0.098665735     -0.476128693
           6
  t=         3.50000    8    2
C       0.001475286     -0.012063236     -0.016785134
N       0.001418980     -0.025823380      1.357567656
H       0.868150754      0.075464845     -0.498682194
H       0.970376074      0.203167459      1.887288674
H      -0.921113856      0.123046861      1.717296579
H      -0.954694836      0.100759899     -0.498208838
           6
  t=         4.00000    8    2
C       0.002565054     -0.014613768     -0.029539500
N       0.001283908     -0.026871381      1.367951704
H       0.883888923      0.095810440     -0.516181105
H       0.986150708      0.205767615      1.913184083
H      -0.934191158      0.140150989      1.738731410
H      -0.984229276      0.105640917     -0.520456932
           6
  t=         4.50000    8    2
C       0.003212907     -0.017398336     -0.043660986
N       0.001439322     -0.027879908      1.379852034
H       0.905111747      0.116980778     -0.537658418
H       0.991868336      0.208285002      1.934450289
H      -0.943866375      0.156971519      1.762702837
H      -1.011367779      0.112301701     -0.541423710
           6
  t=         5.00000    5    2
C       0.003362562     -0.020383829     -0.059172526
N       0.001907190     -0.028835729      1.393213171
H       0.929330227      0.139363709     -0.561222012
H       0.987103199      0.210166306      1.950725770
H      -0.949026992      0.173887392      1.787848173
H      -1.033943139      0.119950708     -0.560233214
           6
  t=         5.50000    5    2
C       0.003780158     -0.023575375     -0.075342637
N       0.002153748     -0.029664096      1.407539462
H       0.954105717      0.163193239     -0.587706301
H       0.974373359      0.210818663      1.961871451
H      -0.948156707      0.190592720      1.814153779
H      -1.055257079      0.128275166     -0.577721213
           6
  t=         6.00000    5    2
C       0.003803733     -0.026865667     -0.092740829
N       0.002674507     -0.030434330      1.423052474
H       0.977014381      0.188033548     -0.613230589
H       0.951843665      0.210438321      1.967949734
H      -0.941778516      0.207633838      1.839695888
H      -1.069530573      0.136653795     -0.592204499
           6
  t=         6.50000    5    2
C       0.003517745     -0.030196567     -0.111241484
N       0.003410217     -0.031161551      1.439581276
H       0.996205142      0.213544475     -0.636754649
H       0.920701200      0.209129061      1.969300480
H      -0.929974332      0.225033155      1.863834048
H      -1.076200063      0.144818391     -0.603543420
           6
  t=         7.00000    5    2
C       0.003010832     -0.033511458     -0.130699727
N       0.004259955     -0.031880579      1.456932146
H       1.010311416      0.239346111     -0.657567501
H       0.882960288      0.207227739      1.966665132
H      -0.913195507      0.242826796      1.886116574
H      -1.075115074      0.152585568     -0.611772085
           6
  t=         7.50000    5    2
C       0.002373925     -0.036757265     -0.150957871
N       0.005062289     -0.032655152      1.474878951
H       1.018404589      0.265055766     -0.675245394
H       0.841769031      0.205394403      1.961353907
H      -0.892272902      0.261100777      1.906269008
H      -1.066503965      0.159845591     -0.617085590
           6
  t=         8.00000    5    2
C       0.001703962     -0.039886269     -0.171846659
N       0.005576469     -0.033589014      1.493151772
H       1.019935794      0.290310977     -0.689611728
H       0.801702259      0.204727361      1.955398941
H      -0.868421171      0.280026457      1.924183979
H      -1.050987205      0.166564530     -0.619850269
           6
  t=         8.50000    5    2
C       0.001110634     -0.042858319     -0.193180932
N       0.005486751     -0.034832739      1.511439363
H       1.014690592      0.314785170     -0.700714198
H       0.768701653      0.206814149      1.951492350
H      -0.843218350      0.299895839      1.939902247
H      -1.029632999      0.172803465     -0.620631374
           6
  t=         9.00000    5    2
C       0.000723934     -0.045642346     -0.214746353
N       0.004470279     -0.036571907      1.529430001
H       1.002772984      0.338202930     -0.708829144
H       0.749079171      0.213519044      1.952364779
H      -0.818535557      0.321145114      1.953564205
H      -1.004048110      0.178745945     -0.620244513
           6
  t=         9.50000    5    2
C       0.000699673     -0.048216883     -0.236272833
N       0.002344044     -0.038981906      1.546896308
H       0.984615250      0.360352369     -0.714497157
H       0.747340408      0.226324308      1.959488006
H      -0.796390839      0.344343808      1.965305032
H      -0.976464805      0.184733351     -0.619812665
           6
  t=        10.00000    5    2
C       0.001211121     -0.050574810     -0.257422145
N      -0.000792768     -0.042151244      1.563765558
H       0.960969918      0.381090462     -0.718494290
H       0.764019711      0.245431050      1.971973007
H      -0.778733726      0.370060054      1.975155039
H      -0.949661668      0.191284459     -0.620717829
           6
  t=        10.50000    5    2
C       0.002404968     -0.052756399     -0.277932246
N      -0.004565902     -0.046001142      1.580131463
H       0.932819703      0.400416883     -0.721471656
H       0.795530085      0.269301638      1.987137169
H      -0.767123927      0.398555036      1.983204852
H      -0.926421302      0.199060976     -0.624139033
           6
  t=        11.00000    5    2
C       0.004363415     -0.054856125     -0.297722201
N      -0.008508831     -0.050325707      1.596217614
H       0.901467612      0.418614891     -0.723874504
H       0.836175134      0.295372883      2.001931036
H      -0.762254406      0.429692339      1.989561536
H      -0.909118251      0.208743387     -0.630758987
           6
  t=        11.50000    5    2
C       0.007083482     -0.056977167     -0.316777967
N      -0.012243643     -0.054891720      1.612268239
H       0.868652130      0.436240762     -0.726250609
H       0.880376446      0.321119523      2.013831595
H      -0.763755979      0.462936782      1.994042706
H      -0.899497094      0.220823965     -0.640885112
           6
  t=        12.00000    5    2
C       0.010450323     -0.059204730     -0.335099042
N      -0.015543928     -0.059479750      1.628479692
H       0.836458582      0.454084689     -0.729321831
H       0.923751672      0.344551383      2.021195943
H      -0.770403797      0.497338015      1.996187798
H      -0.898264040      0.235418708     -0.654426286
           6
  t=        12.50000    5    2
C       0.014240315     -0.061594101     -0.352694634
N      -0.018313603     -0.063896141      1.644985287
H       0.807083485      0.473102716     -0.733913444
H       0.963226677      0.364277506      2.023173206
H      -0.780507105      0.531642751      1.995433212
H      -0.904904614      0.252183409     -0.670885410
           6
  t=        13.00000    5    2
C       0.018170826     -0.064162597     -0.369588038
N      -0.020539438     -0.067977784      1.661861904
H       0.782470273      0.494243557     -0.740814564
H       0.996757278      0.379393978      2.019463161
H      -0.792284235      0.564488599      1.991281378
H      -0.917918264      0.270375541     -0.689466419
           6
  t=        13.50000    5    2
C       0.021978580     -0.066879499     -0.385822936
N      -0.022250096     -0.071596120      1.679143991
H       0.763889733      0.518151340     -0.750603626
H       1.023015835      0.389351883      2.010095404
H      -0.804125343      0.594594323      1.983392840
H      -0.935324972      0.289029094     -0.709239529
           6
  t=        14.00000    5    2
C       0.025492715     -0.069655324     -0.401471526
N      -0.023490465     -0.074659112      1.696843777
H       0.751630620      0.544835115     -0.763511372
H       1.041156851      0.393849999      1.995252806
H      -0.814738791      0.620882062      1.971578930
H      -0.955201516      0.307169898     -0.729278465
           6
  t=        14.50000    5    2
C       0.028615478     -0.072341583     -0.416595129
N      -0.024289908     -0.077085962      1.714937793
H       0.745174331      0.573598349     -0.779392720
H       1.050690882      0.392603785      1.975199018
H      -0.823315990      0.642376678      1.955721395
H      -0.975776537      0.323863459     -0.748817476
           6
  t=        15.00000    8    2
C       0.030973500     -0.074635728     -0.430544260
N      -0.024555199     -0.078567293      1.732521036
H       0.745361501      0.602759569     -0.797106212
H       1.050942357      0.384294474      1.951786390
H      -0.829256286      0.656864797      1.937038318
H      -0.994665401      0.336422415     -0.767227362
           6
  t=        15.50000    8    2
C       0.032548056     -0.076439278     -0.443755531
N      -0.024395187     -0.079069595      1.749456134
H       0.750922384      0.630903433     -0.813884386
H       1.042375374      0.369773058      1.926140565
H      -0.831670955      0.664165531      1.916502266
H      -1.010215862      0.343953789     -0.782266356
           6
  t=        16.00000    8    2
C       0.033423926     -0.077688851     -0.456141066
N      -0.023761715     -0.078451025      1.765516285
H       0.760292481      0.656969870     -0.829570668
H       1.024828209      0.348178918      1.899640028
H      -0.830781393      0.663503177      1.895279844
H      -1.022158883      0.346428513     -0.794531245
           6
  t=        16.50000    8    2
C       0.033668105     -0.078305022     -0.467861376
N      -0.022715853     -0.076726788      1.780577128
H       0.772077241      0.679766496     -0.843086236
H       0.999173878      0.320020170      1.873463846
H      -0.826587002      0.655032245      1.874344443
H      -1.029922679      0.343641896     -0.803614219
           6
  t=        17.00000    8    2
C       0.033351373     -0.078228821     -0.479049453
N      -0.021358957     -0.073975746      1.794531218
H       0.785080065      0.698319185     -0.853630684
H       0.967107886      0.286191165      1.848748290
H      -0.819367544      0.639281775      1.854611841
H      -1.033160894      0.335538257     -0.809291316
           6
  t=        17.50000    8    2
C       0.032550365     -0.077430399     -0.489809810
N      -0.019856456     -0.070345357      1.807284096
H       0.798314334      0.711918517     -0.860652172
H       0.931542163      0.248048331      1.826555845
H      -0.809749955      0.617188596      1.836948140
H      -1.031785848      0.322227216     -0.811486120
           6
  t=        18.00000    8    2
C       0.031352167     -0.075910969     -0.500220918
N      -0.018459368     -0.066055696      1.818760461
H       0.810982552      0.720115350     -0.863805208
H       0.896995343      0.207430068      1.807776265
H      -0.798797226      0.590155196      1.822151818
H      -1.026004874      0.303989244     -0.810251743
           6
  t=        18.50000    8    2
C       0.029859637     -0.073701538     -0.510336790
N      -0.017497558     -0.061388638      1.828916945
H       0.822456392      0.722697704     -0.862914150
H       0.869598072      0.166468411      1.792971112
H      -0.788101219      0.560095275      1.810911118
H      -1.016369878      0.281276231     -0.805767948
           6
  t=        19.00000    8    2
C       0.028197298     -0.070860349     -0.520185951
N      -0.017298086     -0.056646940      1.837751665
H       0.832261404      0.719666236     -0.857949379
H       0.856004645      0.127052025      1.782270925
H      -0.779821356      0.529400155      1.803745900
H      -1.003839677      0.254707692     -0.798348944
           6
  t=        19.50000    8    2
C       0.026516384     -0.067469586     -0.529768054
N      -0.018011932     -0.052089541      1.845294547
H       0.840071902      0.711216558     -0.849016303
H       0.860864891      0.090124467      1.775513330
H      -0.776557813      0.500735297      1.800960515
H      -0.989841197      0.225055288     -0.788451243
           6
  t=        20.00000    8    2
C       0.024994969     -0.063631002     -0.539050728
N      -0.019460367     -0.047883963      1.851576440
H       0.845721980      0.697733977     -0.836351795
H       0.884255075      0.055465597      1.772615319
H      -0.780912999      0.476594210      1.802650162
H      -0.976285983      0.193199521     -0.776664193
           6
  t=        20.50000    8    2
C       0.023826556     -0.059459804     -0.547970532
N      -0.021182957     -0.044103361      1.856603925
H       0.849237912      0.679802720     -0.820320948
H       0.921560756      0.022282672      1.773799813
H      -0.794705409      0.458671310      1.808785121
H      -0.965468824      0.160042681     -0.763662770
           6
  t=        21.00000    8    2
C       0.023190131     -0.055076548     -0.556440413
N      -0.022672621     -0.040743272      1.860360810
H       0.850892439      0.658226023     -0.801409091
H       0.965914861     -0.010032038      1.779448191
H      -0.818139847      0.447349928      1.819325110
H      -0.959767303      0.126379384     -0.750114253
           6
  t=        21.50000    8    2
C       0.023201108     -0.050599092     -0.564362115
N      -0.023582613     -0.037738295      1.862825069
H       0.851270796      0.634046092     -0.780206345
H       1.010768116     -0.041619484      1.789836597
H      -0.849498971      0.441668263      1.834262805
H      -0.961126757      0.092764751     -0.736561231
           6
  t=        22.00000    8    2
C       0.023857544     -0.046138987     -0.571638245
N      -0.023778828     -0.034987536      1.863984272
H       0.851322733      0.608544542     -0.757381305
H       1.051092606     -0.072263803      1.805015889
H      -0.885617301      0.439797908      1.853563064
H      -0.970474649      0.059456100     -0.723337759
           6
  t=        22.50000    8    2
C       0.025010200     -0.041804477     -0.578178862
N      -0.023281538     -0.032385520      1.863843291
H       0.852355640      0.583195414     -0.733639498
H       1.083470359     -0.101586645      1.824833810
H      -0.922779856      0.439679305      1.877076038
H      -0.987356750      0.026483922     -0.710574835
           6
  t=        23.00000    8    2
C       0.026380883     -0.037704717     -0.583902350
N      -0.022185128     -0.029842495      1.862425404
H       0.855911394      0.559539295     -0.709667387
H       1.105752910     -0.129195242      1.849003641
H      -0.957502623      0.439460582      1.904503078
H      -1.010026694     -0.006180629     -0.698295819
           6
  t=        23.50000    8    2
C       0.027628376     -0.033945704     -0.588736272
N      -0.020602300     -0.027287095      1.859772178
H       0.863488842      0.538969875     -0.686073486
H       1.116693499     -0.154787362      1.877157284
H      -0.986951561      0.437645202      1.935415747
H      -1.035941845     -0.038466405     -0.686535696
           6
  t=        24.00000    7    1
C       0.028434825     -0.030614410     -0.592623931
N      -0.018637387     -0.024655572      1.855950011
H       0.876147530      0.522474048     -0.663350961
H       1.115686514     -0.178246164      1.908850678
H      -1.009068327      0.433041982      1.969273256
H      -1.062380237     -0.070136180     -0.675414114
           6
  t=        24.50000    7    1
C       0.028640630     -0.027369153     -0.596208449
N      -0.016187335     -0.021711944      1.850850633
H       0.895868919      0.508723574     -0.639305568
H       1.102211317     -0.201515359      1.946938701
H      -1.024420148      0.425043221      2.009104698
H      -1.089766976     -0.104657328     -0.663847529
           6
  t=        25.00000    7    1
C       0.028040381     -0.024521225     -0.599333848
N      -0.013682615     -0.018961252      1.845142926
H       0.920369210      0.498851943     -0.616087796
H       1.077878097     -0.220489028      1.987519437
H      -1.029316594      0.415424104      2.050721641
H      -1.112692008     -0.138320845     -0.652745857
           6
  t=        25.50000    7    1
C       0.026613261     -0.022018480     -0.601877427
N      -0.011241897     -0.016426789      1.838609067
H       0.948314284      0.491909753     -0.593455889
H       1.043383018     -0.234756345      2.031359710
H      -1.022791613      0.404041317      2.094621752
H      -1.129586696     -0.170742094     -0.642049818
           6
  t=        26.00000    4    1
C       0.024448628     -0.019799403     -0.603702055
N      -0.008977416     -0.014082119      1.831096626
H       0.977742720      0.486797883     -0.571532775
H       0.999881600     -0.244453217      2.079050026
H      -1.004470654      0.390558152      2.140998960
H      -1.139524263     -0.201449087     -0.631935783
           6
  t=        26.50000    4    1
C       0.021649913     -0.017736192     -0.605079723
N      -0.006920231     -0.011692733      1.822920627
H       1.007243847      0.482268638     -0.549791715
H       0.948252732     -0.251407045      2.129787860
H      -0.974820507      0.373754674      2.188658804
H      -1.142306109     -0.230926832     -0.622072058
           6
  t=        27.00000    4    1
C       0.018428544     -0.015811696     -0.605629068
N      -0.005309079     -0.009439744      1.813710497
H       1.034142623      0.477483312     -0.529378647
H       0.891908783     -0.254786968      2.185306253
H      -0.934123343      0.354813996      2.238369529
H      -1.137587722     -0.258038414     -0.613205900
           6
  t=        27.50000    4    1
C       0.014948648     -0.013944533     -0.605365831
N      -0.004294488     -0.007370971      1.803439739
H       1.056835662      0.471628048     -0.510625352
H       0.833594552     -0.254885471      2.246642474
H      -0.883212122      0.334422580      2.290138243
H      -1.125540316     -0.282668511     -0.605494319
           6
  t=        28.00000    4    1
C       0.011370781     -0.012131354     -0.604298271
N      -0.003837121     -0.005207018      1.792184417
H       1.074059518      0.464174158     -0.493763566
H       0.775403930     -0.254228808      2.313914798
H      -0.824627261      0.311671153      2.343217318
H      -1.106912186     -0.304774827     -0.599034757
           6
  t=        28.50000    4    1
C       0.007792123     -0.010408081     -0.602316279
N      -0.003752143     -0.002698770      1.780167470
H       1.085423667      0.455050099     -0.478819745
H       0.719274609     -0.255413159      2.385108280
H      -0.762482044      0.286328703      2.395554655
H      -1.082862480     -0.324492195     -0.594142335
           6
  t=        29.00000    4    1
C       0.004428139     -0.008617672     -0.599692733
N      -0.003958006     -0.000091697      1.767864079
H       1.089773468      0.443373660     -0.466303454
H       0.667423461     -0.258072594      2.458035768
H      -0.700641168      0.260936997      2.446372100
H      -1.054287305     -0.342305333     -0.590695441
           6
  t=        29.50000    4    1
C       0.001441341     -0.006703186     -0.596428383
N      -0.004240991      0.002521493      1.755536257
H       1.086969607      0.429026120     -0.456383621
H       0.620112926     -0.262275507      2.529815142
H      -0.642397861      0.236835411      2.495157648
H      -1.022921036     -0.358756355     -0.588762545
           6
  t=        30.00000    4    1
C      -0.001004356     -0.004598472     -0.592529470
N      -0.004431448      0.005052889      1.743477280
H       1.077243281      0.412019689     -0.449158798
H       0.577554441     -0.267973122      2.597229826
H      -0.590379143      0.215188397      2.541272621
H      -0.990888168     -0.374636914     -0.588390455
           6
  t=        30.50000    4    1
C      -0.002757962     -0.002232368     -0.588009241
N      -0.004445080      0.007441982      1.731959027
H       1.061236109      0.392510438     -0.444640390
H       0.540148192     -0.275150246      2.657572380
H      -0.546223348      0.196832782      2.583843459
H      -0.960561263     -0.390961657     -0.589606588
           6
  t=        31.00000    4    1
C      -0.003720590      0.000465281     -0.582856129
N      -0.004239311      0.009652051      1.721159750
H       1.040013224      0.370822995     -0.442795762
H       0.508034447     -0.283815658      2.709048463
H      -0.510654890      0.182311940      2.622101689
H      -0.934190281     -0.408914913     -0.592495196
           6
  t=        31.50000    4    1
C      -0.003886150      0.003547838     -0.577104432
N      -0.003841324      0.011662963      1.711220909
H       1.015332247      0.347454355     -0.443382207
H       0.481495037     -0.293987441      2.750784728
H      -0.483634615      0.171923582      2.655106306
H      -0.913548643     -0.429628968     -0.597041755
           6
  t=        32.00000    4    1
C      -0.003391357      0.007025069     -0.570801586
N      -0.003290776      0.013458330      1.702223269
H       0.989675923      0.323106666     -0.446011903
H       0.460546718     -0.305599843      2.782486230
H      -0.464687048      0.165801024      2.682152274
H      -0.899432504     -0.453893605     -0.603191461
           6
  t=        32.50000    4    1
C      -0.002538879      0.010848889     -0.564010751
N      -0.002632652      0.015015220      1.694210161
H       0.966303750      0.298651394     -0.450152184
H       0.445042637     -0.318489286      2.804147968
H      -0.453115262      0.164013812      2.702725122
H      -0.891422555     -0.481922264     -0.610807528
           6
  t=        33.00000    4    1
C      -0.001771284      0.014920454     -0.556805956
N      -0.001918747      0.016291085      1.687212118
H       0.949143944      0.275027730     -0.455165365
H       0.434825313     -0.332364166      2.815798870
H      -0.448155867      0.166675321      2.716373289
H      -0.888063690     -0.513291014     -0.619647808
           6
  t=        33.50000    4    1
C      -0.001584416      0.019142157     -0.549252136
N      -0.001225737      0.017193233      1.681273523
H       0.942490822      0.253023059     -0.460384173
H       0.429996915     -0.346709388      2.817239046
H      -0.449077853      0.174149884      2.722461314
H      -0.887514124     -0.547216571     -0.629387709
           6
  t=        34.00000    4    1
C      -0.002346317      0.023413761     -0.541392261
N      -0.000598430      0.017682026      1.676438400
H       0.948917516      0.232927770     -0.465470518
H       0.430466352     -0.361274405      2.808233895
H      -0.455288143      0.186551986      2.720410986
H      -0.887844169     -0.582610124     -0.639652564
           6
  t=        34.50000    4    1
C      -0.004191172      0.027609935     -0.533255183
N      -0.000008397      0.017831495      1.672734396
H       0.967810237      0.214454367     -0.470523326
H       0.435636486     -0.376311170      2.788726427
H      -0.466400694      0.203421895      2.709939499
H      -0.887026231     -0.618008799     -0.650044258
           6
  t=        35.00000    4    1
C      -0.007042072      0.031667272     -0.524846208
N       0.000556947      0.017679726      1.670202257
H       0.996656205      0.196937214     -0.475739979
H       0.445149182     -0.391941280      2.758454452
H      -0.482124085      0.224521156      2.690607618
H      -0.883571420     -0.652161120     -0.660166938
           6
  t=        35.50000    4    1
C      -0.010667419      0.035552305     -0.516160673
N       0.001100091      0.017243914      1.668879637
H       1.031640291      0.179649267     -0.481308277
H       0.458764195     -0.408201444      2.717091716
H      -0.502198576      0.249723849      2.661967056
H      -0.876476283     -0.684017845     -0.669636960
           6
  t=        36.00000    4    1
C      -0.014770131      0.039234892     -0.507193406
N       0.001617825      0.016533570      1.668779179
H       1.068620130      0.162059389     -0.487318641
H       0.476229498     -0.425054797      2.664425360
H      -0.526308158      0.278891052      2.623719744
H      -0.865155143     -0.712719013     -0.678090225
           6
  t=        36.50000    4    1
C      -0.019057155      0.042677349     -0.497941937
N       0.002100369      0.015559924      1.669861713
H       1.103890473      0.143932844     -0.493736593
H       0.497189672     -0.442379547      2.600586302
H      -0.553972318      0.311751230      2.575872127
H      -0.849381284     -0.737587494     -0.685183762
           6
  t=        37.00000    4    1
C      -0.023270984      0.045834122     -0.488405928
N       0.002521759      0.014348731      1.672005524
H       1.134528230      0.125315159     -0.500415761
H       0.521182625     -0.460010339      2.526360052
H      -0.584420566      0.347780273      2.518849086
H      -0.829245345     -0.758125513     -0.690587182
           6
  t=        37.50000    4    1
C      -0.027214083      0.048682375     -0.478505900
N       0.002899620      0.012918325      1.674884884
H       1.158374854      0.106203970     -0.507669170
H       0.547135140     -0.477311749      2.443883501
H      -0.616822771      0.386124841      2.454634999
H      -0.804942617     -0.774095620     -0.694529305
           6
  t=        38.00000    4    1
C      -0.030736944      0.051193631     -0.468283708
N       0.003135563      0.011364677      1.678362439
H       1.174178465      0.086820795     -0.515291708
H       0.575446616     -0.494884687      2.354875812
H      -0.650319998      0.426169601      2.383606036
H      -0.776892648     -0.785497467     -0.696903753
           6
  t=        38.50000    4    1
C      -0.033719254      0.053354968     -0.457713164
N       0.003139790      0.009797028      1.682011000
H       1.181159839      0.067471335     -0.523117103
H       0.606197355     -0.513200205      2.262807895
H      -0.683772945      0.466898405      2.307736692
H      -0.745720690     -0.792513541     -0.697698542
           6
  t=        39.00000    4    1
C      -0.036067395      0.055170745     -0.446763520
N       0.002788220      0.008353980      1.685388823
H       1.179040190      0.048492378     -0.530954935
H       0.639969719     -0.533099695      2.171282073
H      -0.716051731      0.507266521      2.229074639
H      -0.712250878     -0.795572172     -0.696982423
           6
  t=        39.50000    4    1
C      -0.037718700      0.056670810     -0.435400044
N       0.001965773      0.007161357      1.688128627
H       1.168013729      0.030192685     -0.538603086
H       0.677337186     -0.555299443      2.083070702
H      -0.746103982      0.546290161      2.149517667
H      -0.677450475     -0.795385701     -0.694938074
           6
  t=        40.00000    4    1
C      -0.038663719      0.057923493     -0.423596994
N       0.000632077      0.006275820      1.690010968
H       1.148834770      0.012746140     -0.545836706
H       0.718054855     -0.579694514      1.999489587
H      -0.773005683      0.583122859      2.070596842
H      -0.642304458     -0.792987341     -0.691894715
           6
  t=        40.50000    4    1
C      -0.039068416      0.059098896     -0.411415840
N      -0.001132469      0.005652746      1.691045619
H       1.123390753     -0.004346357     -0.552283862
H       0.760797587     -0.605143055      1.920491294
H      -0.796073908      0.617214536      1.993169863
H      -0.607199081     -0.789875134     -0.688438397
           6
  t=        41.00000    4    1
C      -0.039886793      0.061878952     -0.396302608
N      -0.003617356      0.004736632      1.689764888
H       1.107454695     -0.026859083     -0.562915163
H       0.802254275     -0.624266778      1.845115448
H      -0.809840570      0.648571560      1.917595377
H      -0.574682894     -0.799967588     -0.689013880
           6
  t=        41.50000    4    1
C      -0.040459459      0.064565923     -0.380243856
N      -0.006232304      0.003844953      1.687287153
H       1.090460907     -0.048384964     -0.572622665
H       0.840460554     -0.639262285      1.773628363
H      -0.817976997      0.676146285      1.844433103
H      -0.544607323     -0.810623962     -0.691440711
           6
  t=        42.00000    4    1
C      -0.040567856      0.067030893     -0.363429836
N      -0.008841580      0.002951720      1.683610187
H       1.071073044     -0.067812662     -0.581306436
H       0.873390577     -0.649216509      1.706530074
H      -0.820681733      0.699406923      1.774653923
H      -0.517899888     -0.821440792     -0.694993472
           6
  t=        42.50000    4    1
C      -0.040388499      0.069138699     -0.345908811
N      -0.011314955      0.002000792      1.678678128
H       1.050976932     -0.084817046     -0.588610150
H       0.899518195     -0.652938400      1.644404276
H      -0.817775425      0.718221934      1.708785330
H      -0.494607341     -0.831413342     -0.699788837
           6
  t=        43.00000    4    1
C      -0.040142633      0.070938186     -0.327433472
N      -0.013593602      0.000960880      1.672134267
H       1.032099958     -0.099879502     -0.595296409
H       0.917580140     -0.649664180      1.588852195
H      -0.808756516      0.732642453      1.648459064
H      -0.474078394     -0.841021936     -0.706285620
           6
  t=        43.50000    4    1
C      -0.039406199      0.072388767     -0.308229418
N      -0.015706127     -0.000200430      1.664156539
H       1.012136294     -0.111798280     -0.601748770
H       0.927574736     -0.639476394      1.539227113
H      -0.794486035      0.742853899      1.593390398
H      -0.457796244     -0.850637604     -0.712954948
           6
  t=        44.00000    4    1
C      -0.038294581      0.073411239     -0.288333662
N      -0.017615414     -0.001486061      1.654722666
H       0.992257901     -0.120522086     -0.608136782
H       0.929343776     -0.622388842      1.495826321
H      -0.775306341      0.749158239      1.543942964
H      -0.445574135     -0.859616111     -0.719537916
           6
  t=        44.50000    4    1
C      -0.036894432      0.073759583     -0.268093757
N      -0.019250158     -0.002886892      1.644029868
H       0.973475594     -0.125281494     -0.613588848
H       0.923349046     -0.598963956      1.458477072
H      -0.752303956      0.752012393      1.499759741
H      -0.437757107     -0.865818815     -0.724978371
           6
  t=        45.00000    4    1
C      -0.035214936      0.073268968     -0.247830909
N      -0.020570312     -0.004430645      1.632183919
H       0.956402231     -0.125086647     -0.617089802
H       0.910443077     -0.569939707      1.427224422
H      -0.726650701      0.752232269      1.460611486
H      -0.435085831     -0.867965708     -0.727752404
           6
  t=        45.50000    4    1
C      -0.033366782      0.071889795     -0.227642087
N      -0.021567943     -0.006118825      1.619194267
H       0.942151080     -0.120009829     -0.618545435
H       0.891793171     -0.536113774      1.402313038
H      -0.699422625      0.750725121      1.426671220
H      -0.437557080     -0.865482606     -0.727348566
           6
  t=        46.00000    4    1
C      -0.031454511      0.069601856     -0.207598374
N      -0.022272594     -0.007942701      1.605072583
H       0.931657670     -0.110293603     -0.617951525
H       0.869241486     -0.498582461      1.383914101
H      -0.671824708      0.748612997      1.398128967
H      -0.445088325     -0.858033380     -0.723448117
           6
  t=        46.50000    4    1
C      -0.029566207      0.066405189     -0.187756618
N      -0.022770717     -0.009878096      1.589839517
H       0.925572819     -0.096282326     -0.615299619
H       0.845549348     -0.458799844      1.372057929
H      -0.645148421      0.747211454      1.375177416
H      -0.457550253     -0.845471551     -0.715892515
           6
  t=        47.00000    1    1
C      -0.027766699      0.062314690     -0.168161012
N      -0.023225560     -0.011879987      1.573524553
H       0.924189187     -0.078400250     -0.610529750
H       0.824588811     -0.418556326      1.366595876
H      -0.620682489      0.747948831      1.358032135
H      -0.474778696     -0.827813711     -0.704692151
           6
  t=        47.50000    1    1
C      -0.026094670      0.057382126     -0.148807848
N      -0.023932455     -0.013870038      1.556180304
H       0.927228394     -0.056479591     -0.603971356
H       0.810817336     -0.380409671      1.366743575
H      -0.598801320      0.752400628      1.346786883
H      -0.496014322     -0.805950184     -0.689602121
           6
  t=        48.00000    4    1
C      -0.024549240      0.051617015     -0.129743693
N      -0.025110732     -0.015808422      1.537794264
H       0.934360217     -0.031762522     -0.594953398
H       0.809727412     -0.345241240      1.372838465
H      -0.581213698      0.761567819      1.341978617
H      -0.521673631     -0.779425137     -0.671439646
           6
  t=        48.50000    4    1
C      -0.023199488      0.045524480     -0.112227073
N      -0.026902848     -0.017464302      1.519643727
H       0.943743906     -0.005811162     -0.584684269
H       0.823959390     -0.317258189      1.384321977
H      -0.568768326      0.775433612      1.344286291
H      -0.548905646     -0.751674286     -0.651878730
           6
  t=        49.00000    1    1
C      -0.021827869      0.038610316     -0.094619536
N      -0.029343929     -0.019046369      1.500073148
H       0.954963821      0.021892851     -0.572154834
H       0.854455849     -0.291852305      1.403303053
H      -0.561340755      0.794892236      1.354231835
H      -0.580464004     -0.719934329     -0.631065525
           6
  t=        49.50000    1    1
C      -0.020372308      0.030929011     -0.076885990
N      -0.032312287     -0.020520938      1.478842171
H       0.966639178      0.052244691     -0.556882454
H       0.898111812     -0.268970835      1.430810506
H      -0.557435742      0.819320744      1.372440421
H      -0.615788046     -0.685647064     -0.608214943
           6
  t=        50.00000    1    1
C      -0.018670665      0.022486969     -0.058833930
N      -0.035338469     -0.021969350      1.455956827
H       0.977599925      0.082987585     -0.539454992
H       0.948533988     -0.244363865      1.467221592
H      -0.557267717      0.846885448      1.399265359
H      -0.655553334     -0.647918016     -0.585845556
           6
  t=        50.50000    1    1
C      -0.016606501      0.013321936     -0.040370554
N      -0.038063757     -0.023312543      1.431447576
H       0.986683184      0.113384103     -0.520110768
H       0.999445277     -0.216389636      1.511929103
H      -0.559776744      0.875203239      1.434741280
H      -0.699750411     -0.606816356     -0.564674673
           6
  t=        51.00000    1    1
C      -0.014097359      0.003479521     -0.021468397
N      -0.040208699     -0.024397876      1.405491162
H       0.992932439      0.142678910     -0.499173486
H       1.045559316     -0.184304401      1.563401758
H      -0.563887631      0.901478955      1.478336015
H      -0.748076176     -0.562199232     -0.545097912
           6
  t=        51.50000    1    1
C      -0.011123968     -0.006983956     -0.002202331
N      -0.041585982     -0.025033843      1.378411149
H       0.995668620      0.170092896     -0.477018198
H       1.083017769     -0.148158182      1.619529464
H      -0.568690945      0.922872989      1.528921735
H      -0.799734706     -0.513729367     -0.527106511
           6
  t=        52.00000    1    1
C      -0.007746270     -0.017999092      0.017220998
N      -0.042084812     -0.025023333      1.350670910
H       0.994538904      0.194826241     -0.454061361
H       1.109321542     -0.108543548      1.677967125
H      -0.573538084      0.936789037      1.584899461
H      -0.853348393     -0.460983162     -0.510317709
           6
  t=        52.50000    1    1
C      -0.004100986     -0.029484442      0.036448467
N      -0.041656432     -0.024178998      1.322864373
H       0.989547374      0.216098464     -0.430783494
H       1.123128114     -0.066373082      1.736380808
H      -0.578040730      0.941009252      1.644399131
H      -0.907016630     -0.403622531     -0.494094688
           6
  t=        53.00000    1    1
C      -0.000379876     -0.041360276      0.054993055
N      -0.040321574     -0.022329288      1.295684825
H       0.981005491      0.233233713     -0.407799606
H       1.124179520     -0.022654696      1.792716620
H      -0.581944924      0.933777011      1.705560211
H      -0.958475554     -0.341539983     -0.477741867
           6
  t=        53.50000    1    1
C       0.003209885     -0.053526513      0.072222943
N      -0.038126258     -0.019357964      1.269928377
H       0.969251634      0.245628464     -0.385865460
H       1.112771637      0.021753223      1.845447150
H      -0.585048814      0.914087363      1.766699075
H      -1.005455101     -0.275075401     -0.460830929
           6
  t=        54.00000    1    1
C       0.006487367     -0.065838636      0.087329283
N      -0.035093283     -0.015180745      1.246586732
H       0.954907628      0.252810726     -0.365674351
H       1.089182857      0.065821761      1.892865991
H      -0.587481571      0.881416251      1.825727072
H      -1.046255196     -0.205095559     -0.443021830
           6
  t=        54.50000    1    1
C       0.009283340     -0.078185392      0.099431969
N      -0.031292377     -0.009708625      1.226717775
H       0.938935878      0.254539008     -0.348013532
H       1.054299429      0.108535995      1.933399281
H      -0.589485184      0.835529160      1.880570798
H      -1.079498708     -0.132670910     -0.424099349
           6
  t=        55.00000    1    1
C       0.011437982     -0.090490114      0.107689339
N      -0.026812749     -0.002858786      1.211339600
H       0.922504203      0.250770807     -0.333771033
H       1.009393292      0.148970577      1.965725149
H      -0.591378098      0.776588134      1.929333241
H      -1.104164461     -0.059059184     -0.404080821
           6
  t=        55.50000    1    1
C       0.012791543     -0.102705117      0.111452052
N      -0.021741994      0.005433371      1.201291861
H       0.906961189      0.241691702     -0.323880473
H       0.956025049      0.186259604      1.988736413
H      -0.593612684      0.705207271      1.970327132
H      -1.119590092      0.014340505     -0.383173035
           6
  t=        56.00000    1    1
C       0.013179802     -0.114789320      0.110423405
N      -0.016150555      0.015183268      1.197077540
H       0.893747226      0.227693970     -0.319258952
H       0.896019828      0.219629458      2.001555998
H      -0.596866709      0.622548621      2.002244286
H      -1.125429239      0.086044007     -0.361729444
           6
  t=        56.50000    1    1
C       0.012450876     -0.126670435      0.104746787
N      -0.010090412      0.026325648      1.198761121
H       0.884216479      0.209253684     -0.320698046
H       0.831491090      0.248501568      2.003596154
H      -0.602095643      0.530268075      2.024334316
H      -1.121663382      0.154543906     -0.340223629
           6
  t=        57.00000    1    1
C       0.010489699     -0.138225455      0.094968906
N      -0.003613547      0.038707354      1.205974967
H       0.879435416      0.186866655     -0.328706721
H       0.764960994      0.272580026      1.994715359
H      -0.610486790      0.430293923      2.036385757
H      -1.108601508      0.218375446     -0.319195062
           6
  t=        57.50000    1    1
C       0.007248522     -0.149288101      0.081909162
N       0.003194670      0.052093053      1.217990788
H       0.879970995      0.161011991     -0.343379054
H       0.699610694      0.292020343      1.975597529
H      -0.623400972      0.324606382      2.038733951
H      -1.086876231      0.276213687     -0.299206321
           6
  t=        58.00000    1    1
C       0.002778821     -0.159665869      0.066501821
N       0.010160706      0.066171035      1.233796353
H       0.885730458      0.132098849     -0.364350999
H       0.639679686      0.307733801      1.948481251
H      -0.642211933      0.215029980      2.032293847
H      -1.057462314      0.326952602     -0.280834810
           6
  t=        58.50000    1    1
C      -0.002751560     -0.169164962      0.049651075
N       0.016940906      0.080555023      1.252164901
H       0.895930225      0.100443099     -0.390861529
H       0.590981587      0.321796368      1.918227461
H      -0.667851491      0.103048977      2.018311116
H      -1.021681615      0.369775606     -0.264669185
           6
  t=        59.00000    1    1
C      -0.009064795     -0.177618083      0.032130622
N       0.022951655      0.094775423      1.271733557
H       0.909213928      0.066276035     -0.421892873
H       0.561095143      0.337752817      1.893075808
H      -0.700090715     -0.010133419      1.997853531
H      -0.981184497      0.404236194     -0.251310671
           6
  t=        59.50000    1    1
C      -0.015799444     -0.184906543      0.014538798
N       0.027453190      0.108301060      1.291191476
H       0.923839363      0.029753371     -0.456331898
H       0.557787925      0.360040788      1.883009357
H      -0.737042763     -0.123166459      1.971545611
H      -0.937908256      0.430357342     -0.241390912
           6
  t=        60.00000    1    1
C      -0.022557115     -0.190976951     -0.002707168
N       0.029934954      0.120695342      1.309685848
H       0.937896767     -0.009002736     -0.493011936
H       0.584429544      0.391550670      1.893933264
H      -0.775644874     -0.234170939      1.939850002
H      -0.894025241      0.448677784     -0.235563021
           6
  t=        60.50000    1    1
C      -0.028957978     -0.195863282     -0.019366937
N       0.030472390      0.131818554      1.327157540
H       0.949674893     -0.049793829     -0.530702758
H       0.636293417      0.431117567      1.922769123
H      -0.812658523     -0.340879863      1.903199315
H      -0.851906942      0.460242722     -0.234451500
           6
  t=        61.00000    1    1
C      -0.034657922     -0.199683388     -0.035319692
N       0.029568742      0.141771614      1.344025168
H       0.957842931     -0.092332348     -0.568266351
H       0.703267898      0.474555062      1.961030619
H      -0.845266662     -0.440991043      1.862281072
H      -0.814017474      0.466649900     -0.238650502
           6
  t=        61.50000    1    1
C      -0.039357422     -0.202611791     -0.050503581
N       0.027781037      0.150709741      1.360675571
H       0.961418756     -0.136276737     -0.604710588
H       0.775435099      0.517507163      2.001017015
H      -0.871510747     -0.532584465      1.818208461
H      -0.782721277      0.469915057     -0.248675952
           6
  t=        62.00000    1    1
C      -0.042822580     -0.204845607     -0.064887524
N       0.025526290      0.158746978      1.377294377
H       0.959752260     -0.181244610     -0.639190282
H       0.845762607      0.556907949      2.037974827
H      -0.890304821     -0.614322460      1.772300286
H      -0.760000924      0.472146535     -0.264887589
           6
  t=        62.50000    1    1
C      -0.044911335     -0.206561366     -0.078460659
N       0.023070586      0.165950510      1.393906308
H       0.952511555     -0.226827395     -0.671010458
H       0.910001521      0.590984922      2.069543324
H      -0.901205502     -0.685409564      1.725858685
H      -0.747107602      0.475081221     -0.287394643
           6
  t=        63.00000    1    1
C      -0.045595227     -0.207873249     -0.091229929
N       0.020575571      0.172360042      1.410447176
H       0.939668031     -0.272608229     -0.699632457
H       0.965785507      0.618827412      2.094760381
H      -0.904171083     -0.745457141      1.680051524
H      -0.744272892      0.479632151     -0.315966976
           6
  t=        63.50000    1    1
C      -0.044963756     -0.208811625     -0.103219862
N       0.018141259      0.178003636      1.426813438
H       0.921483910     -0.318181676     -0.724682014
H       1.011857234      0.640010101      2.113368670
H      -0.899385963     -0.794346774      1.635872546
H      -0.750641259      0.485672473     -0.349984556
           6
  t=        64.00000    1    1
C      -0.043205853     -0.209331746     -0.114469738
N       0.015834210      0.182906264      1.442889660
H       0.898501249     -0.363175906     -0.745959144
H       1.047570610      0.654355732      2.125431424
H      -0.887151166     -0.832125477      1.594142931
H      -0.764482881      0.492174871     -0.388460214
           6
  t=        64.50000    1    1
C      -0.040576203     -0.209344008     -0.125026236
N       0.013704229      0.187093405      1.458562507
H       0.871529229     -0.407278119     -0.763448470
H       1.072601256      0.661804388      2.131140369
H      -0.867822806     -0.858935232      1.555532018
H      -0.783585956      0.497607490     -0.430139865
           6
  t=        65.00000    1    1
C      -0.037360203     -0.208747148     -0.134933843
N       0.011793825      0.190591900      1.473727266
H       0.841622560     -0.450262147     -0.777325202
H       1.086786041      0.662349009      2.130727505
H      -0.841782512     -0.874969549      1.520587658
H      -0.805652909      0.500366110     -0.473643536
           6
  t=        65.50000    1    1
C      -0.033846468     -0.207450991     -0.144227580
N       0.010143240      0.193429334      1.488290227
H       0.810038697     -0.492013990     -0.787946387
H       1.090040266      0.656010182      2.124431596
H      -0.809430043     -0.880450089      1.489773367
H      -0.828579372      0.499080820     -0.517597426
           6
  t=        66.00000    1    1
C      -0.030307825     -0.205386084     -0.152931189
N       0.008792528      0.195632380      1.502168241
H       0.778163492     -0.532546168     -0.795816403
H       1.082325618      0.642838509      2.112496593
H      -0.771193650     -0.875619701      1.463511593
H      -0.850592679      0.492758818     -0.560725576
           6
  t=        66.50000    4    1
C      -0.027013583     -0.202509793     -0.161108445
N       0.007786957      0.197204418      1.515313992
H       0.747391619     -0.572077168     -0.801460172
H       1.063573087      0.623160189      2.095243358
H      -0.727421004     -0.860713280      1.442326194
H      -0.870093149      0.480972700     -0.601930992
           6
  t=        67.00000    4    1
C      -0.024290041     -0.198818852     -0.168955293
N       0.007189269      0.198057455      1.527711669
H       0.719088363     -0.611091530     -0.805120776
H       1.033633392      0.598297653      2.073364045
H      -0.678269290     -0.835920994      1.427302323
H      -0.885126182      0.464258429     -0.640195133
           6
  t=        67.50000    4    1
C      -0.022136090     -0.194286551     -0.176289595
N       0.006991626      0.198339352      1.539202239
H       0.694179741     -0.649416821     -0.807517130
H       0.993413772      0.567301913      2.047023135
H      -0.625097669     -0.802024592      1.418252634
H      -0.896070177      0.441801877     -0.674735216
           6
  t=        68.00000    4    1
C      -0.020645801     -0.188938797     -0.183175463
N       0.007192946      0.198070671      1.549692425
H       0.673302513     -0.687153110     -0.808729527
H       0.944097671      0.530924250      2.017149906
H      -0.569033418     -0.760032312      1.415739970
H      -0.902482928      0.413982813     -0.704903737
           6
  t=        68.50000    4    1
C      -0.019859950     -0.182832844     -0.189705431
N       0.007737285      0.197286927      1.559050460
H       0.656682368     -0.724221121     -0.808471996
H       0.888234223      0.490548712      1.985396567
H      -0.511785813     -0.711848476      1.420253849
H      -0.904167170      0.381430521     -0.730195729
           6
  t=        69.00000    4    1
C      -0.019782724     -0.176062729     -0.196001702
N       0.008471147      0.196062662      1.567076481
H       0.644158282     -0.760326128     -0.806023592
H       0.830809189      0.448635701      1.954705877
H      -0.456012471     -0.661041784      1.431974441
H      -0.901107459      0.345042527     -0.750223097
           6
  t=        69.50000    5    2
C      -0.020520682     -0.168802763     -0.202329406
N       0.009208172      0.194492922      1.573460148
H       0.635047821     -0.794863117     -0.799212717
H       0.779873507      0.410247976      1.930604846
H      -0.405858032     -0.614053338      1.449887660
H      -0.892669502      0.306347075     -0.764201494
           6
  t=        70.00000    5    2
C      -0.021182491     -0.163942720     -0.205804526
N       0.008836193      0.193656293      1.575447899
H       0.630958580     -0.815768010     -0.792615868
H       0.766462611      0.392471095      1.925748414
H      -0.382648801     -0.598102422      1.466528609
H      -0.885330155      0.282835176     -0.768824473
           6
  t=        70.50000    4    1
C      -0.022186491     -0.158201708     -0.209247001
N       0.007425702      0.193078255      1.575074645
H       0.628120354     -0.838860553     -0.780976626
H       0.776608301      0.382561801      1.935943706
H      -0.368288877     -0.601739119      1.491190822
H      -0.875445222      0.259148452     -0.769146883
           6
  t=        71.00000    4    1
C      -0.023946282     -0.147825022     -0.214630437
N       0.003895472      0.192879976      1.571616563
H       0.624416113     -0.877527769     -0.756265511
H       0.822251598      0.373459230      1.968709656
H      -0.358016004     -0.635176901      1.542137530
H      -0.857653382      0.219558430     -0.765424472
           6
  t=        71.50000    4    1
C      -0.025281529     -0.137312742     -0.219253017
N      -0.000088662      0.193371460      1.566632341
H       0.620300701     -0.913312767     -0.729521985
H       0.879740193      0.365393775      2.004726992
H      -0.356217770     -0.684201539      1.599316788
H      -0.841569291      0.180437620     -0.761073068
           6
  t=        72.00000    4    1
C      -0.025911806     -0.126964139     -0.222885422
N      -0.004103364      0.194194423      1.560499872
H       0.615075255     -0.945270970     -0.700620229
H       0.939536272      0.356765526      2.039117023
H      -0.359024775     -0.741387940      1.661612017
H      -0.830046642      0.143557772     -0.758204238
           6
  t=        72.50000    4    1
C      -0.025593459     -0.117046329     -0.225308663
N      -0.007923503      0.194953332      1.553559746
H       0.608226774     -0.972614378     -0.669594115
H       0.995424511      0.346877046      2.068698561
H      -0.363061822     -0.799584082      1.726972075
H      -0.825761508      0.110352452     -0.758891545
           6
  t=        73.00000    5    2
C      -0.024249141     -0.107708875     -0.226314716
N      -0.011371844      0.195334849      1.546165314
H       0.599443289     -0.995489027     -0.636903875
H       1.043159543      0.335937033      2.091538773
H      -0.365787769     -0.853545727      1.792434327
H      -0.830081223      0.081649251     -0.765165791
           6
  t=        73.50000    5    2
C      -0.022041356     -0.099986793     -0.226159608
N      -0.013837691      0.194961850      1.539273604
H       0.590043175     -1.010939756     -0.604998554
H       1.075302457      0.326204874      2.105760879
H      -0.367345558     -0.893685794      1.848991761
H      -0.843292622      0.060210033     -0.773942756
           6
  t=        74.00000    5    2
C      -0.018821387     -0.092925623     -0.224446652
N      -0.015813408      0.194174737      1.531936137
H       0.578958921     -1.020596442     -0.571382604
H       1.097555723      0.314855431      2.112554094
H      -0.367680081     -0.927465733      1.902406949
H      -0.865015427      0.041857139     -0.786214738
           6
  t=        74.50000    5    2
C      -0.014904260     -0.086579256     -0.221251993
N      -0.017261231      0.192943148      1.524216660
H       0.566811363     -1.024195371     -0.536604894
H       1.109524827      0.302046009      2.111758341
H      -0.366693312     -0.953998213      1.951747403
H      -0.892347745      0.026345754     -0.800319395
           6
  t=        75.00000    5    2
C      -0.010640824     -0.080963239     -0.216675470
N      -0.018159494      0.191265070      1.516155132
H       0.554272951     -1.021878915     -0.501249191
H       1.111071190      0.287951190      2.103383431
H      -0.364339889     -0.972912854      1.996321573
H      -0.921992348      0.013486367     -0.814357635
           6
  t=        75.50000    5    2
C      -0.006364393     -0.076064572     -0.210802334
N      -0.018500112      0.189155096      1.507775285
H       0.542074216     -1.014184716     -0.465945393
H       1.102240582      0.272759622      2.087561590
H      -0.360588732     -0.984147277      2.035608241
H      -0.950900228      0.003208053     -0.826625252
           6
  t=        76.00000    5    2
C      -0.002365965     -0.071843372     -0.203686029
N      -0.018288412      0.186635891      1.499089704
H       0.531011315     -1.002039041     -0.431371233
H       1.083256885      0.256688721      2.064539205
H      -0.355411719     -0.987810847      2.069188418
H      -0.976580684     -0.004460770     -0.835810415
           6
  t=        76.50000    5    2
C       0.001109598     -0.068233074     -0.195347013
N      -0.017546076      0.183732206      1.490101759
H       0.521944163     -0.986736069     -0.398242077
H       1.054578000      0.240011315      2.034704252
H      -0.348787850     -0.984104869      2.096690077
H      -0.997155742     -0.009433935     -0.841016940
           6
  t=        77.00000    5    2
C       0.003859171     -0.065143976     -0.185779823
N      -0.016319359      0.180466433      1.480803608
H       0.515769695     -0.969875516     -0.367286128
H       1.017033290      0.223090016      1.998657136
H      -0.340714203     -0.973281994      2.117748699
H      -1.011293353     -0.011600868     -0.841708631
           6
  t=        77.50000    5    2
C       0.005718330     -0.062473294     -0.174963372
N      -0.014696056      0.176855005      1.471169266
H       0.513353502     -0.953227775     -0.339204429
H       0.972083220      0.206415670      1.957341988
H      -0.331218005     -0.955631291      2.131984324
H      -1.018114706     -0.010845124     -0.837638612
           6
  t=        78.00000    5    2
C       0.006564630     -0.060122759     -0.162872283
N      -0.012835466      0.172905511      1.461141759
H       0.515408855     -0.938511617     -0.314618646
H       0.922254481      0.190643633      1.912257946
H      -0.320365923     -0.931480218      2.138995265
H      -1.017121857     -0.007051318     -0.828793213
           6
  t=        78.50000    5    2
C       0.006327685     -0.058021056     -0.149488529
N      -0.011012323      0.168615076      1.450615415
H       0.522332947     -0.927112763     -0.294013214
H       0.871761121      0.176616265      1.865741481
H      -0.308268658     -0.901209121      2.138369929
H      -1.008159979     -0.000104946     -0.815359300
           6
  t=        79.00000    5    2
C       0.005002108     -0.056143979     -0.134812795
N      -0.009658505      0.163971282      1.439422440
H       0.534045514     -0.919826526     -0.277680665
H       0.827087303      0.165355938      1.821188925
H      -0.295082825     -0.865279078      2.129721537
H      -0.991411567      0.010112331     -0.797714333
           6
  t=        79.50000    5    2
C       0.002656225     -0.054524093     -0.118873828
N      -0.009342575      0.158957007      1.427350941
H       0.549904375     -0.916729415     -0.265680608
H       0.796702869      0.158025233      1.782817460
H      -0.281016156     -0.824283954      2.112755658
H      -0.967410281      0.023733943     -0.776435060
           6
  t=        80.00000    5    2
C      -0.000569067     -0.053246841     -0.101732260
N      -0.010589915      0.153559965      1.414230580
H       0.568754615     -0.917237349     -0.257825268
H       0.788561249      0.155884282      1.754417073
H      -0.266339909     -0.779054112      2.087385729
H      -0.937061174      0.040934135     -0.752324007
           6
  t=        80.50000    5    2
C      -0.004469934     -0.052436695     -0.083476278
N      -0.013564429      0.147790748      1.400059581
H       0.589091539     -0.920323205     -0.253701049
H       0.805666703      0.160236343      1.737422339
H      -0.251404488     -0.730847054      2.053916130
H      -0.901663088      0.061974888     -0.726459004
           6
  t=        81.00000    5    2
C      -0.008791723     -0.052238870     -0.064212386
N      -0.017909702      0.141719747      1.385037313
H       0.609253704     -0.924804492     -0.252721929
H       0.843856708      0.172221793      1.730191952
H      -0.236660462     -0.681644691      2.013320047
H      -0.862925735      0.087266270     -0.700259979
           6
  t=        81.50000    5    2
C      -0.013243492     -0.052803371     -0.044064478
N      -0.022950290      0.135529155      1.369440092
H       0.627575101     -0.929586685     -0.254192594
H       0.894622934      0.192501937      1.729416806
H      -0.222706908     -0.634562702      1.967639913
H      -0.822924772      0.117422761     -0.675519562
           6
  t=        82.00000    5    2
C      -0.017509618     -0.054345008     -0.023291866
N      -0.027998414      0.129588703      1.353493200
H       0.642247757     -0.933385013     -0.257120388
H       0.949402068      0.221167744      1.732148185
H      -0.210289659     -0.594628190      1.920607936
H      -0.783857375      0.153516258     -0.654056495
           6
  t=        82.50000    5    2
C      -0.021391160     -0.056922612     -0.001516662
N      -0.032688526      0.124449016      1.336754118
H       0.652698477     -0.935808443     -0.262390955
H       1.002521169      0.255920456      1.737380266
H      -0.198855423     -0.567468332      1.878604874
H      -0.747478521      0.196131589     -0.638710999
           6
  t=        83.00000    5    2
C      -0.024691957     -0.060614621      0.020877669
N      -0.036622360      0.120596257      1.319373027
H       0.657767577     -0.936857979     -0.269162812
H       1.049444290      0.296576573      1.743052374
H      -0.189522603     -0.559592193      1.846594975
H      -0.714843474      0.246141340     -0.630748946
           6
  t=        83.50000    5    2
C      -0.027378949     -0.065418666      0.043305063
N      -0.039542184      0.118306285      1.301695170
H       0.656600420     -0.936802917     -0.276684954
H       1.087053870      0.342793730      1.747797527
H      -0.182739375     -0.574494084      1.827430529
H      -0.685506508      0.303790382     -0.630225405
           6
  t=        84.00000    5    2
C      -0.029607869     -0.071179919      0.064922227
N      -0.041223771      0.117406348      1.284445177
H       0.649108841     -0.935941628     -0.284315160
H       1.113024520      0.394026904      1.750548033
H      -0.178868717     -0.609687286      1.820260716
H      -0.657952308      0.367992189     -0.635891420
           6
  t=        84.50000    5    2
C      -0.031630597     -0.077529199      0.084466625
N      -0.041428136      0.117297525      1.268544683
H       0.638482502     -0.931846538     -0.291019305
H       1.127980775      0.447007330      1.750020418
H      -0.181993248     -0.655906035      1.823748409
H      -0.632233907      0.434247988     -0.643933216
           6
  t=        85.00000    5    2
C      -0.033613951     -0.084324871      0.101138852
N      -0.040288206      0.117612403      1.254799358
H       0.626599831     -0.923506375     -0.297277614
H       1.132701144      0.499037987      1.745891912
H      -0.191764322     -0.705094429      1.834641661
H      -0.607523673      0.499606211     -0.651971730
           6
  t=        85.50000    5    2
C      -0.035658998     -0.091484966      0.114191925
N      -0.038020414      0.118136991      1.243972028
H       0.614681388     -0.910736437     -0.303596328
H       1.128231645      0.548262769      1.738255441
H      -0.206938255     -0.751249666      1.849760627
H      -0.583121278      0.561732705     -0.658118607
           6
  t=        86.00000    5    2
C      -0.037826949     -0.098961151      0.123020062
N      -0.034823694      0.118797412      1.236691457
H       0.603645815     -0.893894029     -0.310525903
H       1.115511737      0.593385001      1.727360910
H      -0.226209754     -0.790505432      1.866666786
H      -0.558697225      0.618866119     -0.661158062
           6
  t=        86.50000    5    2
C      -0.040160463     -0.106721681      0.127227892
N      -0.030847186      0.119612681      1.233399634
H       0.594323062     -0.873644583     -0.318661571
H       1.095213267      0.633393816      1.713457150
H      -0.248469450     -0.820595345      1.883642965
H      -0.534282551      0.669774220     -0.660460086
           6
  t=        87.00000    5    2
C      -0.042707182     -0.114718156      0.126679717
N      -0.026183662      0.120638327      1.234314486
H       0.587592845     -0.850868480     -0.328638301
H       1.067689258      0.667395865      1.696730698
H      -0.272837188     -0.840272298      1.899506398
H      -0.510133883      0.713635748     -0.655805681
           6
  t=        87.50000    5    2
C      -0.045531935     -0.122855119      0.121520632
N      -0.020881924      0.121919951      1.239409863
H       0.584464897     -0.826588851     -0.341119966
H       1.033063964      0.694528588      1.677326755
H      -0.298622474     -0.848872296      1.913455606
H      -0.486625716      0.749902266     -0.647238992
           6
  t=        88.00000    5    2
C      -0.048711684     -0.130978533      0.112163839
N      -0.014973450      0.123460058      1.248420799
H       0.586080271     -0.801853626     -0.356771017
H       0.991450605      0.713956323      1.655437994
H      -0.325266183     -0.846016322      1.924982288
H      -0.464217719      0.778209393     -0.635018324
           6
  t=        88.50000    5    2
C      -0.052313970     -0.138888126      0.099266726
N      -0.008506751      0.125190095      1.260868542
H       0.593636194     -0.777538888     -0.376264680
H       0.943257579      0.724940316      1.631439641
H      -0.352290496     -0.831359461      1.933824759
H      -0.443515073      0.798394996     -0.619759468
           6
  t=        89.00000    5    2
C      -0.056351003     -0.146366892      0.083817872
N      -0.001598580      0.126913139      1.276051481
H       0.608285277     -0.754052841     -0.400683289
H       0.889583975      0.726931422      1.606122957
H      -0.379214634     -0.804107887      1.939924478
H      -0.425482718      0.810774842     -0.603135205
           6
  t=        89.50000    5    2
C      -0.060579066     -0.153367082      0.067505182
N       0.005526347      0.128540712      1.292621612
H       0.629058453     -0.730559696     -0.433143021
H       0.831701877      0.718873178      1.583199101
H      -0.404913247     -0.764422579      1.944913092
H      -0.411328598      0.816391387     -0.588740132
           6
  t=        90.00000    5    2
C      -0.064934474     -0.159564606      0.050138369
N       0.012622676      0.129859169      1.310326609
H       0.655197721     -0.708431616     -0.469843297
H       0.773015128      0.703602676      1.562882022
H      -0.429174420     -0.713510921      1.947923587
H      -0.401259735      0.814096668     -0.573950126
           6
  t=        90.50000    5    2
C      -0.069147825     -0.164782159      0.032184481
N       0.019192895      0.130455061      1.328522125
H       0.684919309     -0.687807388     -0.509324970
H       0.719119506      0.685215387      1.547259389
H      -0.451373971     -0.651920141      1.949218384
H      -0.396007435      0.804114693     -0.559182727
           6
  t=        91.00000    5    2
C      -0.072891327     -0.168908451      0.014066624
N       0.024560750      0.129787086      1.346558357
H       0.715844201     -0.668725179     -0.550229138
H       0.677909610      0.670405366      1.538912925
H      -0.470975494     -0.580755571      1.949572625
H      -0.396130541      0.787090832     -0.545162940
           6
  t=        91.50000    5    2
C      -0.075840187     -0.171911587     -0.003862457
N       0.028061810      0.127328018      1.363839843
H       0.745431049     -0.651252055     -0.591323454
H       0.657587234      0.667201910      1.540026836
H      -0.487986894     -0.502138744      1.950457052
H      -0.401916986      0.764130074     -0.532704584
           6
  t=        92.00000    5    2
C      -0.077723210     -0.173850026     -0.021324707
N       0.029448348      0.122892526      1.379897947
H       0.771340364     -0.635513398     -0.631489165
H       0.661965470      0.680912418      1.551025763
H      -0.503635877     -0.419566557      1.954297680
H      -0.413399783      0.736818427     -0.522576423
           6
  t=        92.50000    5    2
C      -0.078364817     -0.174850862     -0.038124377
N       0.029186463      0.116868865      1.394421498
H       0.791760714     -0.621709596     -0.669643547
H       0.687206911      0.710580352      1.569963843
H      -0.520960129     -0.337665528      1.964580822
H      -0.430459095      0.707058068     -0.515408868
           6
  t=        93.00000    5    2
C      -0.077711705     -0.175062889     -0.054118023
N       0.028232772      0.109976315      1.407216969
H       0.805695624     -0.610061917     -0.704820617
H       0.724575889      0.750527492      1.593593156
H      -0.544332925     -0.260690019      1.985190527
H      -0.452915760      0.676780577     -0.511823067
           6
  t=        93.50000    5    2
C      -0.075801443     -0.174654734     -0.069157616
N       0.027485975      0.102804354      1.418221394
H       0.812849734     -0.600639648     -0.736355007
H       0.765492328      0.794476121      1.618863806
H      -0.577114838     -0.190429975      2.018437269
H      -0.480573303      0.647940304     -0.512632654
           6
  t=        94.00000    5    2
C      -0.072697183     -0.173820723     -0.083117701
N       0.027407416      0.095620730      1.427604416
H       0.813205821     -0.593274904     -0.763780240
H       0.803960988      0.837816153      1.643541972
H      -0.619099679     -0.125735890      2.062991741
H      -0.513283589      0.622423580     -0.518591797
           6
  t=        94.50000    5    2
C      -0.068470058     -0.172723895     -0.095945578
N       0.028012418      0.088475928      1.435752355
H       0.806853652     -0.587642220     -0.786684946
H       0.836563907      0.877812575      1.666165623
H      -0.666515901     -0.064225192      2.114200466
H      -0.550855893      0.601497180     -0.529991550
           6
  t=        95.00000    5    2
C      -0.063223400     -0.171437525     -0.107657880
N       0.029078435      0.081352563      1.443093407
H       0.794032440     -0.583353499     -0.804753191
H       0.861722431      0.913173050      1.685894958
H      -0.714246076     -0.004052604      2.166501216
H      -0.592745704      0.585334096     -0.546497257
           6
  t=        95.50000    5    2
C      -0.057110056     -0.169939794     -0.118292712
N       0.030314630      0.074203255      1.449917815
H       0.775150394     -0.579964534     -0.817874218
H       0.879107878      0.943786799      1.702542471
H      -0.757678784      0.055758990      2.215532899
H      -0.637783073      0.573022307     -0.567250113
           6
  t=        96.00000    5    2
C      -0.050358007     -0.168177366     -0.127794766
N       0.031466650      0.066897810      1.456175590
H       0.750789166     -0.576783769     -0.826243809
H       0.889126603      0.970813132      1.717192124
H      -0.793505256      0.116077594      2.259397816
H      -0.684016171      0.563016859     -0.591204576
           6
  t=        96.50000    5    2
C      -0.043453389     -0.166094910     -0.136238307
N       0.032744311      0.059616332      1.461927180
H       0.722913303     -0.573935648     -0.830064741
H       0.890572018      0.993240841      1.729669233
H      -0.821847166      0.176131888      2.296655433
H      -0.729208182      0.554063467     -0.616498273
           6
  t=        97.00000    5    2
C      -0.036746981     -0.163504360     -0.143798053
N       0.034177906      0.052560977      1.467489055
H       0.693604828     -0.572526362     -0.829951371
H       0.883195034      1.009988005      1.738399713
H      -0.842403203      0.234302900      2.325213314
H      -0.771737616      0.544921097     -0.641167154
           6
  t=        97.50000    5    2
C      -0.030542029     -0.160235513     -0.150489465
N       0.035727037      0.045809546      1.472963719
H       0.664876363     -0.573564671     -0.827075160
H       0.867317838      1.020907473      1.742831496
H      -0.854816628      0.289655387      2.344208184
H      -0.810124014      0.534573371     -0.663864519
           6
  t=        98.00000    5    2
C      -0.025132172     -0.156154809     -0.156244381
N       0.037376696      0.039414305      1.478357443
H       0.638826842     -0.578090302     -0.822937268
H       0.843307484      1.026009599      1.742821997
H      -0.859093036      0.341527610      2.353425919
H      -0.843122924      0.522394878     -0.683631234
           6
  t=        98.50000    5    2
C      -0.020775712     -0.151166255     -0.160958053
N       0.039131653      0.033422596      1.483633029
H       0.617410007     -0.587136717     -0.819082778
H       0.811553682      1.025324436      1.738394270
H      -0.855511412      0.389384473      2.352986674
H      -0.869789515      0.508123407     -0.699795790
           6
  t=        99.00000    5    2
C      -0.017661966     -0.145221602     -0.164531828
N       0.041004544      0.027879282      1.488729839
H       0.602068675     -0.601538797     -0.816708815
H       0.772521685      1.018918234      1.729659437
H      -0.844541852      0.432756309      2.343205414
H      -0.889483215      0.491799394     -0.711919306
           6
  t=        99.50000    5    2
C      -0.015883088     -0.138338745     -0.166910902
N       0.043007052      0.022823760      1.493571814
H       0.593406847     -0.621662328     -0.816281384
H       0.726826207      1.006965320      1.716796530
H      -0.826813437      0.471208882      2.324535698
H      -0.901858675      0.473714220     -0.719764075
           6
  t=       100.00000    5    2
C      -0.015424909     -0.130617260     -0.168102699
N       0.045143342      0.018282306      1.498070092
H       0.591077677     -0.647194308     -0.817363450
H       0.675325523      0.989873164      1.700058356
H      -0.803121052      0.504333433      2.297562805
H      -0.906859029      0.454376734     -0.723282161
