[Molden Format]
[N_Atoms]
                    6
[Atoms] (AU)
C1          1      6          -0.00000773      0.00000595      0.06655996
N2          2      7           0.00000777      0.00000138      2.47206135
H3          3      1           1.77784546      0.00405296     -0.94411584
H4          4      1           1.62626474     -0.00442717      3.47313276
H5          5      1          -1.62623632      0.00442352      3.47315372
H6          6      1          -1.77787391     -0.00405663     -0.94409292
[5D]
[7F]
[9G]
[Charge] (Mulliken)
   0.0000000000000000     
   0.0000000000000000     
   0.0000000000000000     
   0.0000000000000000     
   0.0000000000000000     
   0.0000000000000000     
[GTO] (AU)
   1
   s   9
  6.665000000E+03  6.920001793E-04
  1.000000000E+03  5.329001381E-03
  2.280000000E+02  2.707700701E-02
  6.471000000E+01  1.017180264E-01
  2.106000000E+01  2.747400712E-01
  7.495000000E+00  4.485641162E-01
  2.797000000E+00  2.850740738E-01
  5.215000000E-01  1.520400394E-02
  1.596000000E-01 -3.191000827E-03
   s   9
  6.665000000E+03 -1.460000642E-04
  1.000000000E+03 -1.154000508E-03
  2.280000000E+02 -5.725002519E-03
  6.471000000E+01 -2.331201026E-02
  2.106000000E+01 -6.395502813E-02
  7.495000000E+00 -1.499810660E-01
  2.797000000E+00 -1.272620560E-01
  5.215000000E-01  5.445292395E-01
  1.596000000E-01  5.804962554E-01
   s   1
  1.596000000E-01  1.000000000E+00
   p   4
  9.439000000E+00  3.810902127E-02
  2.002000000E+00  2.094801169E-01
  5.456000000E-01  5.085572839E-01
  1.517000000E-01  4.688422617E-01
   p   1
  1.517000000E-01  1.000000000E+00
   d   1
  5.500000000E-01  1.000000000E+00
 
   2
   s   9
  9.046000000E+03  7.000000346E-04
  1.357000000E+03  5.389000266E-03
  3.093000000E+02  2.740600135E-02
  8.773000000E+01  1.032070051E-01
  2.856000000E+01  2.787230138E-01
  1.021000000E+01  4.485400222E-01
  3.838000000E+00  2.782380137E-01
  7.466000000E-01  1.544000076E-02
  2.248000000E-01 -2.864000141E-03
   s   9
  9.046000000E+03 -1.529999886E-04
  1.357000000E+03 -1.207999910E-03
  3.093000000E+02 -5.991999553E-03
  8.773000000E+01 -2.454399817E-02
  2.856000000E+01 -6.745899497E-02
  1.021000000E+01 -1.580779882E-01
  3.838000000E+00 -1.218309909E-01
  7.466000000E-01  5.490029590E-01
  2.248000000E-01  5.788149568E-01
   s   1
  2.248000000E-01  1.000000000E+00
   p   4
  1.355000000E+01  3.991901233E-02
  2.917000000E+00  2.171690671E-01
  7.973000000E-01  5.103191576E-01
  2.185000000E-01  4.622141427E-01
   p   1
  2.185000000E-01  1.000000000E+00
   d   1
  8.170000000E-01  1.000000000E+00
 
   3
   s   4
  1.301000000E+01  1.968498999E-02
  1.962000000E+00  1.379769298E-01
  4.446000000E-01  4.781477569E-01
  1.220000000E-01  5.012397451E-01
   s   1
  1.220000000E-01  1.000000000E+00
   p   1
  7.270000000E-01  1.000000000E+00
 
   4
   s   4
  1.301000000E+01  1.968498999E-02
  1.962000000E+00  1.379769298E-01
  4.446000000E-01  4.781477569E-01
  1.220000000E-01  5.012397451E-01
   s   1
  1.220000000E-01  1.000000000E+00
   p   1
  7.270000000E-01  1.000000000E+00
 
   5
   s   4
  1.301000000E+01  1.968498999E-02
  1.962000000E+00  1.379769298E-01
  4.446000000E-01  4.781477569E-01
  1.220000000E-01  5.012397451E-01
   s   1
  1.220000000E-01  1.000000000E+00
   p   1
  7.270000000E-01  1.000000000E+00
 
   6
   s   4
  1.301000000E+01  1.968498999E-02
  1.962000000E+00  1.379769298E-01
  4.446000000E-01  4.781477569E-01
  1.220000000E-01  5.012397451E-01
   s   1
  1.220000000E-01  1.000000000E+00
   p   1
  7.270000000E-01  1.000000000E+00
 
[MO]
Sym=     1a  
Ene=   -15.9060
Spin= Alpha
Occup=    2.00000
   1         0.00003504
   2        -0.00021609
   3         0.00293087
   4        -0.00000000
   5        -0.00000000
   6        -0.00044652
   7         0.00000001
   8        -0.00000000
   9         0.00173311
  10        -0.00055916
  11        -0.00000001
  12         0.00000000
  13         0.00012925
  14         0.00000125
  15         1.00122612
  16         0.00658388
  17        -0.00730613
  18        -0.00000001
  19        -0.00000000
  20        -0.00079841
  21         0.00000002
  22        -0.00000000
  23         0.00218462
  24         0.00019324
  25         0.00000000
  26        -0.00000000
  27         0.00029038
  28        -0.00000174
  29        -0.00034200
  30         0.00024703
  31        -0.00006063
  32        -0.00000037
  33        -0.00016402
  34        -0.00033559
  35         0.00041456
  36         0.00056108
  37        -0.00000148
  38         0.00015121
  39        -0.00033559
  40         0.00041456
  41        -0.00056108
  42         0.00000147
  43         0.00015122
  44        -0.00034200
  45         0.00024703
  46         0.00006063
  47         0.00000037
  48        -0.00016402
Sym=     2a  
Ene=   -11.5880
Spin= Alpha
Occup=    2.00000
   1         1.00134460
   2         0.00820913
   3        -0.00459650
   4         0.00000000
   5        -0.00000002
   6         0.00169056
   7         0.00000001
   8         0.00000001
   9         0.00097533
  10         0.00072538
  11         0.00000000
  12         0.00000000
  13         0.00068884
  14         0.00000253
  15        -0.00015998
  16         0.00063380
  17        -0.00368104
  18        -0.00000000
  19         0.00000000
  20         0.00034720
  21         0.00000002
  22        -0.00000001
  23         0.00228390
  24        -0.00030744
  25        -0.00000000
  26         0.00000000
  27        -0.00039523
  28         0.00000106
  29        -0.00058540
  30         0.00167184
  31         0.00029012
  32         0.00000076
  33        -0.00027961
  34         0.00061533
  35        -0.00046180
  36        -0.00005668
  37         0.00000028
  38        -0.00045497
  39         0.00061533
  40        -0.00046181
  41         0.00005667
  42        -0.00000028
  43        -0.00045497
  44        -0.00058540
  45         0.00167185
  46        -0.00029012
  47        -0.00000077
  48        -0.00027961
Sym=     3a  
Ene=    -1.5491
Spin= Alpha
Occup=    2.00000
   1        -0.01405370
   2         0.43070966
   3        -0.16725917
   4         0.00000076
   5        -0.00000066
   6         0.16998510
   7        -0.00000048
   8         0.00000025
   9        -0.08378817
  10         0.02829158
  11         0.00000026
  12        -0.00000011
  13        -0.00118765
  14        -0.00001627
  15        -0.01478222
  16         0.77888008
  17        -0.15534367
  18        -0.00000140
  19         0.00000011
  20        -0.06005347
  21         0.00000018
  22         0.00000008
  23        -0.00378850
  24         0.01192337
  25         0.00000012
  26        -0.00000004
  27         0.00291937
  28        -0.00000919
  29         0.11661919
  30        -0.05942285
  31        -0.00931249
  32        -0.00002271
  33         0.00881144
  34         0.25945152
  35        -0.12556673
  36        -0.02749666
  37         0.00007540
  38        -0.01523295
  39         0.25945295
  40        -0.12556737
  41         0.02749654
  42        -0.00007531
  43        -0.01523339
  44         0.11661952
  45        -0.05942307
  46         0.00931264
  47         0.00002277
  48         0.00881133
Sym=     4a  
Ene=    -1.1670
Spin= Alpha
Occup=    2.00000
   1         0.00880764
   2        -0.70027745
   3         0.16662062
   4         0.00000025
   5         0.00000103
   6         0.11770635
   7         0.00000002
   8        -0.00000027
   9        -0.01216986
  10         0.00508025
  11         0.00000022
  12        -0.00000008
  13        -0.00753926
  14        -0.00002318
  15        -0.00159897
  16         0.32711081
  17        -0.04581304
  18         0.00000431
  19        -0.00000124
  20         0.33724823
  21        -0.00000086
  22         0.00000005
  23        -0.06839310
  24        -0.01546987
  25        -0.00000014
  26         0.00000001
  27         0.00337759
  28        -0.00002166
  29        -0.34572837
  30         0.16330545
  31         0.02412380
  32         0.00005442
  33        -0.01205544
  34         0.26702081
  35        -0.12511802
  36        -0.02383537
  37         0.00006539
  38        -0.00864097
  39         0.26701764
  40        -0.12511675
  41         0.02383513
  42        -0.00006536
  43        -0.00864111
  44        -0.34572727
  45         0.16330516
  46        -0.02412395
  47        -0.00005458
  48        -0.01205509
Sym=     5a  
Ene=    -1.0281
Spin= Alpha
Occup=    2.00000
   1        -0.00000011
   2         0.00000248
   3         0.00000057
   4         0.23872274
   5        -0.00069497
   6        -0.00000856
   7        -0.04242064
   8         0.00017167
   9         0.00000239
  10        -0.00000079
  11         0.03490678
  12        -0.00012560
  13         0.00000037
  14        -0.00000014
  15        -0.00000003
  16        -0.00000084
  17         0.00000020
  18         0.68485078
  19        -0.00262853
  20         0.00000174
  21        -0.13475664
  22         0.00029600
  23        -0.00000018
  24        -0.00000020
  25         0.00473924
  26         0.00000926
  27         0.00000011
  28        -0.00000005
  29         0.12428217
  30        -0.07630402
  31        -0.01042795
  32        -0.00005091
  33         0.00378439
  34         0.49818453
  35        -0.21054313
  36        -0.02287874
  37         0.00004503
  38        -0.02749496
  39        -0.49817985
  40         0.21054136
  41        -0.02287803
  42         0.00004487
  43         0.02749534
  44        -0.12427364
  45         0.07630048
  46        -0.01042748
  47        -0.00005107
  48        -0.00378417
Sym=     6a  
Ene=    -0.9275
Spin= Alpha
Occup=    1.74983
   1        -0.00683468
   2         0.00569908
   3         0.09859348
   4        -0.00018882
   5        -0.00000131
   6        -0.63863917
   7         0.00004025
   8         0.00000019
   9         0.20168483
  10        -0.03705221
  11         0.00000648
  12         0.00000020
  13         0.01255025
  14         0.00004488
  15        -0.00178742
  16        -0.10732748
  17         0.02943819
  18         0.00006036
  19        -0.00000222
  20         0.62683436
  21        -0.00000995
  22         0.00000049
  23        -0.11492672
  24        -0.01994802
  25         0.00000656
  26         0.00000011
  27         0.00780552
  28        -0.00003470
  29         0.29764918
  30        -0.11633733
  31        -0.01721470
  32        -0.00004323
  33         0.00040497
  34         0.24943864
  35        -0.09586036
  36        -0.01826067
  37         0.00005515
  38         0.00303092
  39         0.24931429
  40        -0.09582571
  41         0.01825775
  42        -0.00005516
  43         0.00303489
  44         0.29795279
  45        -0.11645254
  46         0.01722369
  47         0.00004337
  48         0.00041544
Sym=     7a  
Ene=    -0.7430
Spin= Alpha
Occup=    1.72208
   1         0.00000002
   2         0.00000043
   3         0.00000002
   4        -0.00424768
   5         0.32614408
   6         0.00000025
   7         0.00065590
   8        -0.07803634
   9        -0.00000023
  10         0.00000018
  11         0.00037844
  12         0.04386192
  13         0.00000018
  14         0.00000025
  15         0.00000001
  16         0.00000035
  17         0.00000010
  18         0.00460195
  19         0.84114130
  20         0.00000190
  21        -0.00027577
  22         0.02822422
  23         0.00000008
  24        -0.00000006
  25         0.00018387
  26        -0.01965999
  27        -0.00000001
  28        -0.00000015
  29        -0.00362423
  30         0.00119616
  31         0.00004474
  32         0.00806966
  33        -0.00011667
  34         0.00230375
  35        -0.00070498
  36        -0.00000266
  37         0.02184759
  38        -0.00008368
  39        -0.00230410
  40         0.00070509
  41        -0.00000270
  42         0.02184765
  43         0.00008380
  44         0.00362351
  45        -0.00119554
  46         0.00004457
  47         0.00806969
  48         0.00011663
Sym=     8a  
Ene=    -0.8054
Spin= Alpha
Occup=    1.74928
   1         0.00000184
   2        -0.00000050
   3        -0.00002719
   4        -0.66815623
   5        -0.00351268
   6         0.00017809
   7         0.14106877
   8         0.00080776
   9        -0.00005581
  10         0.00000978
  11         0.02697782
  12        -0.00025035
  13        -0.00000323
  14         0.00000024
  15         0.00000050
  16         0.00002882
  17        -0.00000792
  18         0.23441783
  19        -0.00553901
  20        -0.00017288
  21        -0.03933344
  22         0.00021458
  23         0.00003171
  24         0.00000518
  25         0.02530332
  26         0.00013491
  27        -0.00000198
  28        -0.00000004
  29        -0.55201757
  30         0.20827875
  31         0.01606000
  32        -0.00000637
  33        -0.01946529
  34         0.24874001
  35        -0.07226149
  36        -0.00639909
  37        -0.00009654
  38        -0.00882032
  39        -0.24887693
  40         0.07231417
  41        -0.00640901
  42        -0.00009657
  43         0.00881878
  44         0.55185662
  45        -0.20821591
  46         0.01605095
  47        -0.00000613
  48         0.01946490
Sym=     9a  
Ene=    -0.2784
Spin= Alpha
Occup=    0.77880
   1        -0.00000010
   2        -0.00000415
   3        -0.00000236
   4         0.00222810
   5        -0.92827356
   6         0.00000093
   7         0.00047056
   8        -0.12756332
   9        -0.00000012
  10         0.00000019
  11         0.00013921
  12         0.01745680
  13         0.00000019
  14         0.00000012
  15         0.00000002
  16         0.00000114
  17         0.00000051
  18         0.00056097
  19         0.41411160
  20        -0.00000010
  21         0.00041980
  22         0.20076747
  23         0.00000031
  24         0.00000007
  25        -0.00018613
  26         0.02182211
  27         0.00000006
  28         0.00000014
  29        -0.00067455
  30        -0.00023682
  31         0.00005042
  32        -0.02402147
  33         0.00000714
  34        -0.00136358
  35         0.00003349
  36         0.00004609
  37         0.01375617
  38        -0.00000803
  39         0.00136263
  40        -0.00003380
  41         0.00004605
  42         0.01375616
  43         0.00000803
  44         0.00067932
  45         0.00023681
  46         0.00005061
  47        -0.02402149
  48        -0.00000702
Sym=    10a  
Ene=    -0.0457
Spin= Alpha
Occup=    0.00000
   1         0.01512474
   2        -0.11146520
   3        -0.81435593
   4         0.00000165
   5         0.00000070
   6         0.18998212
   7         0.00000241
   8         0.00000175
   9         0.26412990
  10        -0.01006217
  11        -0.00000008
  12        -0.00000006
  13        -0.00144187
  14        -0.00007428
  15         0.03200093
  16        -0.24570987
  17        -0.99443602
  18        -0.00000062
  19         0.00000050
  20        -0.18480025
  21        -0.00000131
  22         0.00000018
  23        -0.29240875
  24        -0.00372061
  25        -0.00000003
  26        -0.00000001
  27        -0.00503264
  28         0.00005172
  29         0.03180260
  30         0.55327840
  31         0.00303109
  32        -0.00000919
  33         0.01100545
  34         0.14970710
  35         0.74331031
  36        -0.00820733
  37         0.00003863
  38        -0.00719237
  39         0.14970752
  40         0.74331341
  41         0.00820722
  42        -0.00003857
  43        -0.00719247
  44         0.03180289
  45         0.55328079
  46        -0.00303096
  47         0.00000916
  48         0.01100550
Sym=    11a  
Ene=    -0.0137
Spin= Alpha
Occup=    0.00000
   1        -0.00000003
   2         0.00000044
   3         0.00000192
   4         0.32899484
   5         0.00102794
   6        -0.00000243
   7         0.60157939
   8         0.00241852
   9        -0.00000450
  10        -0.00000026
  11         0.02357683
  12        -0.00003164
  13         0.00000015
  14        -0.00000009
  15        -0.00000004
  16         0.00000028
  17         0.00000121
  18         0.33383383
  19        -0.00139108
  20        -0.00000187
  21         0.30874505
  22        -0.00200109
  23        -0.00000164
  24         0.00000030
  25        -0.02543236
  26         0.00000124
  27        -0.00000016
  28         0.00000010
  29        -0.11058832
  30        -0.95414470
  31         0.00131155
  32         0.00004184
  33        -0.00132253
  34        -0.16294965
  35        -0.90823401
  36         0.00036503
  37        -0.00001612
  38        -0.00253825
  39         0.16294935
  40         0.90823227
  41         0.00036503
  42        -0.00001622
  43         0.00253831
  44         0.11058811
  45         0.95414179
  46         0.00131156
  47         0.00004177
  48         0.00132248
Sym=    12a  
Ene=     0.0026
Spin= Alpha
Occup=    0.00000
   1         0.03111957
   2        -0.33140018
   3        -1.47576297
   4         0.00000135
   5         0.00000276
   6         0.14236787
   7         0.00000351
   8         0.00000432
   9         0.40902313
  10         0.01098082
  11         0.00000018
  12        -0.00000012
  13        -0.00879973
  14         0.00001068
  15        -0.01666441
  16         0.18339662
  17         0.57006280
  18         0.00000024
  19        -0.00000106
  20         0.04041876
  21         0.00000032
  22        -0.00000179
  23         0.07752347
  24        -0.00940732
  25        -0.00000019
  26        -0.00000012
  27         0.00861641
  28         0.00001740
  29         0.11759861
  30         1.18935483
  31        -0.00723545
  32        -0.00000397
  33         0.00058348
  34        -0.08221725
  35        -0.52677668
  36         0.01093032
  37         0.00001090
  38        -0.00584891
  39        -0.08221717
  40        -0.52677681
  41        -0.01093040
  42        -0.00001095
  43        -0.00584878
  44         0.11759865
  45         1.18935769
  46         0.00723544
  47         0.00000419
  48         0.00058339
Sym=    13a  
Ene=     0.0839
Spin= Alpha
Occup=    0.00000
   1        -0.00000001
   2         0.00000017
   3         0.00000063
   4         0.37128816
   5         0.00153174
   6        -0.00000248
   7         1.12771702
   8         0.00175183
   9        -0.00000755
  10        -0.00000006
  11         0.00533276
  12         0.00004450
  13         0.00000003
  14        -0.00000009
  15         0.00000001
  16        -0.00000017
  17        -0.00000039
  18        -0.30729013
  19         0.00063901
  20         0.00000186
  21        -0.67247019
  22         0.00056546
  23         0.00000425
  24         0.00000028
  25        -0.02551574
  26        -0.00003128
  27        -0.00000016
  28         0.00000018
  29        -0.01839891
  30        -1.61545125
  31         0.00071784
  32         0.00001308
  33        -0.00005726
  34         0.01886438
  35         1.06494693
  36        -0.01199181
  37         0.00000951
  38        -0.01251301
  39        -0.01886417
  40        -1.06494607
  41        -0.01199162
  42         0.00000930
  43         0.01251315
  44         0.01839876
  45         1.61545005
  46         0.00071782
  47         0.00001289
  48         0.00005723
Sym=    14a  
Ene=     0.1748
Spin= Alpha
Occup=    0.00000
   1         0.06564830
   2         0.10311915
   3        -2.17315525
   4        -0.00000032
   5        -0.00000062
   6        -0.04238767
   7        -0.00001611
   8         0.00000345
   9        -2.51126321
  10        -0.01088665
  11         0.00000012
  12         0.00000018
  13        -0.03878624
  14        -0.00022145
  15        -0.05916402
  16         0.00969320
  17         2.02433234
  18        -0.00000243
  19         0.00000075
  20        -0.37438191
  21        -0.00000775
  22         0.00000302
  23        -1.22506218
  24         0.03783190
  25         0.00000035
  26        -0.00000007
  27         0.01276014
  28        -0.00010616
  29        -0.13671637
  30        -0.19164856
  31        -0.02310046
  32        -0.00007839
  33        -0.00690415
  34         0.00590818
  35         0.63593350
  36        -0.00109819
  37        -0.00002627
  38         0.02685398
  39         0.00590812
  40         0.63593383
  41         0.00109853
  42         0.00002615
  43         0.02685396
  44        -0.13671628
  45        -0.19164868
  46         0.02310040
  47         0.00007858
  48        -0.00690448
Sym=    15a  
Ene=     0.3579
Spin= Alpha
Occup=    0.00000
   1        -0.00000011
   2        -0.00000031
   3         0.00000101
   4         0.11491608
   5         0.00093302
   6        -0.00000096
   7        -0.66372958
   8        -0.00402001
   9         0.00000437
  10         0.00000262
  11        -0.23315348
  12         0.00010738
  13        -0.00000167
  14        -0.00000123
  15         0.00000001
  16         0.00000014
  17        -0.00000029
  18        -0.10498217
  19         0.00185276
  20         0.00000095
  21         0.08150443
  22         0.00045072
  23        -0.00000034
  24        -0.00000125
  25         0.11111400
  26        -0.00022291
  27         0.00000062
  28        -0.00000045
  29         0.92598869
  30        -0.69820514
  31         0.02771807
  32        -0.00002359
  33        -0.06653562
  34         0.84704286
  35        -0.80138731
  36         0.02462964
  37         0.00004396
  38         0.10352588
  39        -0.84704464
  40         0.80138868
  41         0.02462849
  42         0.00004461
  43        -0.10352629
  44        -0.92599039
  45         0.69820622
  46         0.02771906
  47        -0.00002281
  48         0.06653529
Sym=    16a  
Ene=     0.4213
Spin= Alpha
Occup=    0.00000
   1        -0.12631008
   2        -0.26320631
   3         1.21889924
   4        -0.00000001
   5         0.00007199
   6         0.06751816
   7         0.00000153
   8        -0.00009887
   9         0.08133576
  10        -0.01086492
  11         0.00000187
  12         0.00000285
  13        -0.27399650
  14        -0.00098368
  15        -0.02784854
  16        -0.16089705
  17        -0.15250851
  18         0.00000167
  19         0.00001110
  20         0.23356925
  21         0.00000242
  22         0.00000136
  23         0.41898226
  24         0.00830399
  25         0.00000043
  26        -0.00000309
  27        -0.06834013
  28         0.00017308
  29        -1.21830470
  30         0.93972608
  31        -0.10158618
  32        -0.00021096
  33         0.01827247
  34        -0.50985468
  35         0.21943557
  36        -0.04925615
  37         0.00003149
  38         0.01806672
  39        -0.50985326
  40         0.21943429
  41         0.04925636
  42        -0.00003378
  43         0.01806634
  44        -1.21830330
  45         0.93972522
  46         0.10158640
  47         0.00021418
  48         0.01827105
Sym=    17a  
Ene=     0.4246
Spin= Alpha
Occup=    0.00000
   1         0.00000753
   2         0.00001902
   3        -0.00006382
   4        -0.00313565
   5         1.39857987
   6        -0.00000149
   7         0.00460891
   8        -1.81401804
   9        -0.00000846
  10         0.00000074
  11         0.00056307
  12         0.06196422
  13         0.00001483
  14         0.00000045
  15         0.00000159
  16         0.00000843
  17         0.00000753
  18         0.00156498
  19         0.19469636
  20        -0.00001276
  21        -0.00213754
  22         0.02246512
  23        -0.00002050
  24        -0.00000054
  25        -0.00010580
  26        -0.06556480
  27         0.00000371
  28        -0.00000043
  29        -0.00095924
  30         0.00145466
  31        -0.00023602
  32         0.03532497
  33         0.00005087
  34        -0.00025109
  35        -0.00101375
  36        -0.00013131
  37        -0.02444624
  38        -0.00038874
  39         0.00030842
  40         0.00098765
  41        -0.00013701
  42        -0.02444625
  43         0.00038715
  44         0.00108419
  45        -0.00155718
  46        -0.00024785
  47         0.03532493
  48        -0.00005377
Sym=    18a  
Ene=     0.4676
Spin= Alpha
Occup=    0.00000
   1         0.19192094
   2         0.83752386
   3        -0.31141113
   4         0.00000665
   5        -0.00000113
   6         1.03625825
   7        -0.00000506
   8         0.00000179
   9        -0.82864331
  10        -0.08397014
  11        -0.00000141
  12         0.00000060
  13         0.07231657
  14         0.00090489
  15         0.02534011
  16         0.06532487
  17        -0.01451664
  18         0.00000034
  19        -0.00000090
  20         0.08398448
  21         0.00000524
  22        -0.00000183
  23         0.80894123
  24         0.11884875
  25         0.00000173
  26        -0.00000033
  27        -0.06149824
  28         0.00041745
  29         0.37368409
  30        -0.36666254
  31         0.08608449
  32         0.00021986
  33         0.00809429
  34        -0.77162553
  35         0.52295301
  36        -0.10730077
  37         0.00033536
  38         0.10820726
  39        -0.77162572
  40         0.52295330
  41         0.10730229
  42        -0.00033598
  43         0.10820595
  44         0.37368443
  45        -0.36666257
  46        -0.08608440
  47        -0.00022019
  48         0.00809540
Sym=    19a  
Ene=     0.5101
Spin= Alpha
Occup=    0.00000
   1        -0.11825766
   2        -0.77627964
   3         0.39107276
   4        -0.00000448
   5         0.00000413
   6        -0.71559486
   7         0.00000383
   8        -0.00000337
   9         0.53096428
  10         0.13349260
  11         0.00000145
  12        -0.00000016
  13         0.02609094
  14         0.00058338
  15         0.05259019
  16         0.63893676
  17        -0.55415202
  18        -0.00000054
  19        -0.00000050
  20        -0.02329685
  21        -0.00000139
  22         0.00000059
  23        -0.27749775
  24        -0.08826835
  25         0.00000006
  26         0.00000055
  27        -0.16320157
  28         0.00093997
  29         0.36764495
  30        -0.36991013
  31         0.00655933
  32         0.00000916
  33        -0.03163457
  34        -1.13004328
  35         1.14303486
  36        -0.15218132
  37         0.00043186
  38        -0.09496571
  39        -1.13004341
  40         1.14303564
  41         0.15218026
  42        -0.00043172
  43        -0.09496775
  44         0.36764633
  45        -0.36991115
  46        -0.00655978
  47        -0.00000849
  48        -0.03163463
Sym=    20a  
Ene=     0.5925
Spin= Alpha
Occup=    0.00000
   1         0.00000014
   2         0.00000059
   3        -0.00000118
   4        -1.30966094
   5        -0.00191670
   6         0.00000826
   7         3.31311146
   8         0.00522860
   9        -0.00002100
  10         0.00000274
  11        -0.24484006
  12        -0.00082652
  13        -0.00000156
  14        -0.00000008
  15         0.00000001
  16         0.00000006
  17         0.00000000
  18        -0.11639990
  19        -0.00259901
  20         0.00000071
  21        -0.18114824
  22         0.00261267
  23         0.00000111
  24        -0.00000058
  25         0.05112780
  26         0.00007406
  27         0.00000034
  28         0.00000030
  29        -0.01461698
  30        -1.77458881
  31         0.18333404
  32         0.00039857
  33        -0.09716677
  34         0.13314335
  35        -0.39305036
  36         0.03566496
  37        -0.00006675
  38        -0.02052359
  39        -0.13314328
  40         0.39305027
  41         0.03566522
  42        -0.00006753
  43         0.02052316
  44         0.01461716
  45         1.77458927
  46         0.18333538
  47         0.00039882
  48         0.09716444
Sym=    21a  
Ene=     0.7046
Spin= Alpha
Occup=    0.00000
   1        -0.00000005
   2        -0.00000012
   3         0.00000083
   4         0.23860005
   5         0.00202970
   6        -0.00000128
   7        -0.05400380
   8        -0.00337936
   9         0.00000037
  10        -0.00000012
  11         0.00707173
  12         0.00059888
  13        -0.00000002
  14         0.00000424
  15        -0.00000001
  16        -0.00000026
  17        -0.00000017
  18        -1.04663753
  19        -0.00475591
  20         0.00000671
  21         1.58617372
  22         0.00485706
  23        -0.00000989
  24        -0.00000185
  25         0.16664013
  26        -0.00070446
  27         0.00000118
  28        -0.00000015
  29        -0.71833681
  30         0.72075900
  31        -0.00689883
  32        -0.00025015
  33         0.10805658
  34         0.45836895
  35        -1.33928106
  36         0.21394962
  37        -0.00091453
  38         0.17785790
  39        -0.45836771
  40         1.33927980
  41         0.21394718
  42        -0.00091381
  43        -0.17786065
  44         0.71833624
  45        -0.72075872
  46        -0.00690020
  47        -0.00025308
  48        -0.10805651
Sym=    22a  
Ene=     0.7238
Spin= Alpha
Occup=    0.00000
   1         0.00000516
   2         0.00002333
   3        -0.00003720
   4         0.00212070
   5         0.24839107
   6        -0.00000342
   7        -0.00803267
   8        -0.72123379
   9         0.00000849
  10         0.00000047
  11        -0.00029448
  12        -0.17275232
  13        -0.00000143
  14        -0.00000115
  15         0.00000043
  16         0.00000186
  17        -0.00000276
  18         0.00205447
  19        -1.40454246
  20        -0.00000417
  21        -0.00382285
  22         1.97264054
  23         0.00000568
  24         0.00000040
  25        -0.00076870
  26         0.03330133
  27         0.00000011
  28         0.00000021
  29         0.00266054
  30         0.00156112
  31        -0.00021887
  32        -0.01574055
  33        -0.00008731
  34        -0.00108302
  35         0.00643291
  36        -0.00125432
  37         0.00657010
  38        -0.00076079
  39         0.00108347
  40        -0.00643356
  41        -0.00125380
  42         0.00657025
  43         0.00076138
  44        -0.00265955
  45        -0.00154374
  46        -0.00021555
  47        -0.01574054
  48         0.00008761
Sym=    23a  
Ene=     0.7436
Spin= Alpha
Occup=    0.00000
   1         0.70214080
   2         3.20592793
   3        -5.98247655
   4        -0.00000296
   5        -0.00000239
   6        -0.50281574
   7         0.00000421
   8         0.00001139
   9         0.75084276
  10         0.03744186
  11         0.00000120
  12        -0.00000012
  13        -0.10610861
  14        -0.00019021
  15         0.06613372
  16         0.35803721
  17         0.03632349
  18         0.00000121
  19         0.00000964
  20         0.20439877
  21        -0.00000450
  22        -0.00001307
  23        -0.73053451
  24         0.06830527
  25         0.00000079
  26        -0.00000038
  27        -0.00367075
  28         0.00039840
  29         0.04477043
  30         1.24008495
  31        -0.18581803
  32        -0.00038085
  33         0.12071279
  34        -0.02901788
  35         0.21793314
  36        -0.08094599
  37         0.00062899
  38         0.03363794
  39        -0.02901792
  40         0.21793330
  41         0.08094650
  42        -0.00062901
  43         0.03363684
  44         0.04477060
  45         1.24008410
  46         0.18581952
  47         0.00038415
  48         0.12071034
Sym=    24a  
Ene=     0.8061
Spin= Alpha
Occup=    0.00000
   1         0.12251585
   2         0.35512710
   3         1.22170136
   4        -0.00000203
   5        -0.00000165
   6        -0.33085580
   7         0.00001288
   8         0.00000257
   9         2.03601627
  10         0.38080018
  11         0.00000485
  12        -0.00000016
  13        -0.09033705
  14         0.00292920
  15        -0.05202277
  16        -0.28236361
  17        -0.56321783
  18        -0.00000738
  19         0.00000523
  20        -1.15864105
  21         0.00001885
  22        -0.00001147
  23         2.95010713
  24        -0.09682290
  25        -0.00000127
  26        -0.00000002
  27         0.03220162
  28         0.00037070
  29         0.02884735
  30         0.46435418
  31        -0.04795634
  32         0.00123671
  33        -0.05526647
  34        -0.22815072
  35        -0.76033914
  36         0.15228468
  37         0.00014107
  38         0.10807367
  39        -0.22815095
  40        -0.76033908
  41        -0.15228330
  42        -0.00014236
  43         0.10807574
  44         0.02884718
  45         0.46435401
  46         0.04795559
  47        -0.00123617
  48        -0.05526708
Sym=    25a  
Ene=     0.8748
Spin= Alpha
Occup=    0.00000
   1         0.00112793
   2         0.00390962
   3         0.00582145
   4        -0.00000321
   5        -0.00000002
   6        -0.00114777
   7        -0.00001564
   8        -0.00000009
   9         0.01286091
  10         0.00236101
  11         0.00000032
  12         0.00000394
  13         0.00186986
  14        -0.63930206
  15         0.00043670
  16         0.00173434
  17        -0.00966997
  18        -0.00001360
  19         0.00000015
  20        -0.00598959
  21         0.00004027
  22        -0.00000028
  23         0.01741353
  24        -0.00025331
  25        -0.00000031
  26         0.00000094
  27        -0.00025273
  28        -0.13872340
  29         0.00077215
  30         0.00293851
  31         0.00042819
  32        -0.29932813
  33        -0.00027064
  34        -0.00219184
  35        -0.00320681
  36        -0.00011917
  37        -0.13469005
  38         0.00017501
  39        -0.00216213
  40        -0.00320122
  41         0.00012597
  42         0.13469021
  43         0.00017507
  44         0.00075826
  45         0.00293743
  46        -0.00042528
  47         0.29932840
  48        -0.00027470
Sym=    26a  
Ene=     1.0412
Spin= Alpha
Occup=    0.00000
   1         0.00000148
   2         0.00000630
   3        -0.00001632
   4        -0.00057495
   5        -0.12840129
   6         0.00000068
   7         0.02854264
   8         0.30299034
   9         0.00000243
  10         0.00000139
  11         0.00150476
  12         0.68781882
  13        -0.00000322
  14         0.00000400
  15         0.00000071
  16         0.00000269
  17        -0.00000451
  18         0.00957857
  19        -0.35564056
  20         0.00000218
  21        -0.03817218
  22         0.21598977
  23        -0.00000684
  24        -0.00000036
  25         0.00045264
  26        -0.21414424
  27        -0.00000108
  28        -0.00000134
  29        -0.01001873
  30        -0.00555906
  31         0.00067506
  32        -0.22296753
  33         0.00163760
  34         0.01711341
  35        -0.00152924
  36        -0.00418740
  37        -0.23667887
  38         0.00110571
  39        -0.01710814
  40         0.00153020
  41        -0.00418613
  42        -0.23667936
  43        -0.00110619
  44         0.01002775
  45         0.00555977
  46         0.00067904
  47        -0.22296709
  48        -0.00164175
Sym=    27a  
Ene=     1.0919
Spin= Alpha
Occup=    0.00000
   1        -0.00101789
   2        -0.00396825
   3         0.01047261
   4         0.00000019
   5         0.00000004
   6         0.00014727
   7        -0.00004270
   8        -0.00000035
   9        -0.00139763
  10         0.00014501
  11        -0.00000145
  12         0.00000038
  13         0.00276364
  14        -0.10192495
  15        -0.00054867
  16        -0.00241866
  17         0.00275310
  18        -0.00001248
  19         0.00000001
  20        -0.00068297
  21         0.00005263
  22         0.00000034
  23         0.00301711
  24        -0.00009376
  25        -0.00000096
  26        -0.00000177
  27         0.00184452
  28         0.28261628
  29        -0.00366006
  30         0.00017946
  31         0.00055336
  32        -0.19068149
  33         0.00010130
  34        -0.00144932
  35        -0.00008415
  36         0.00163491
  37         0.55672999
  38        -0.00015353
  39        -0.00139986
  40        -0.00009259
  41        -0.00162561
  42        -0.55673033
  43        -0.00015280
  44        -0.00369425
  45         0.00016540
  46        -0.00055442
  47         0.19068174
  48         0.00010490
Sym=    28a  
Ene=     1.1489
Spin= Alpha
Occup=    0.00000
   1        -0.00000010
   2        -0.00000046
   3         0.00000145
   4         0.03739395
   5        -0.00017907
   6        -0.00000025
   7        -2.05387716
   8         0.00084147
   9         0.00001390
  10         0.00000215
  11        -0.17154104
  12         0.00938072
  13        -0.00000126
  14         0.00000848
  15         0.00000046
  16         0.00000196
  17        -0.00000397
  18        -0.58331445
  19        -0.00422503
  20         0.00000367
  21         2.54455362
  22         0.00000476
  23        -0.00001643
  24         0.00000125
  25        -0.11071303
  26        -0.00285644
  27        -0.00000073
  28        -0.00000302
  29         0.75846527
  30         0.35256959
  31        -0.06338807
  32        -0.00345322
  33        -0.20975411
  34        -1.22283066
  35         0.23853671
  36         0.26531329
  37        -0.00407452
  38        -0.18051234
  39         1.22283202
  40        -0.23853678
  41         0.26531615
  42        -0.00405786
  43         0.18050900
  44        -0.75846522
  45        -0.35256978
  46        -0.06338541
  47        -0.00346730
  48         0.20975497
Sym=    29a  
Ene=     1.2271
Spin= Alpha
Occup=    0.00000
   1        -0.12713345
   2        -0.53354112
   3         3.33963250
   4         0.00000188
   5        -0.00000019
   6         0.30172349
   7         0.00001026
   8        -0.00000286
   9         1.42713701
  10         0.46068733
  11         0.00000598
  12        -0.00000232
  13        -0.11811622
  14        -0.00042735
  15         0.76372381
  16         3.17153248
  17        -6.97136483
  18        -0.00000028
  19         0.00000122
  20        -0.10593220
  21         0.00000512
  22        -0.00000319
  23         1.01550789
  24         0.07116926
  25         0.00000029
  26         0.00000010
  27         0.08634800
  28        -0.00030406
  29        -0.11959918
  30        -0.06606874
  31         0.05097480
  32         0.00095910
  33        -0.02012792
  34         0.85549761
  35        -0.20124778
  36        -0.24449365
  37         0.00139266
  38        -0.07121988
  39         0.85549639
  40        -0.20124765
  41         0.24449241
  42        -0.00138974
  43        -0.07122327
  44        -0.11959848
  45        -0.06606832
  46        -0.05097490
  47        -0.00096234
  48        -0.02012759
Sym=    30a  
Ene=     1.4003
Spin= Alpha
Occup=    0.00000
   1         0.00000005
   2         0.00000022
   3        -0.00000039
   4         0.04023258
   5         0.00073773
   6        -0.00000001
   7        -2.01206105
   8        -0.00373139
   9         0.00001324
  10        -0.00000345
  11         0.31305905
  12         0.00194556
  13         0.00000194
  14         0.00000404
  15        -0.00000010
  16        -0.00000048
  17         0.00000028
  18        -0.17434010
  19        -0.00128000
  20         0.00000133
  21         1.20784108
  22         0.00025019
  23        -0.00000787
  24         0.00000094
  25        -0.08179799
  26        -0.00036593
  27        -0.00000058
  28         0.00000040
  29         1.23555369
  30         0.00852392
  31         0.45105981
  32         0.00037261
  33         0.36593870
  34        -0.54466933
  35         0.19255014
  36         0.02872321
  37        -0.00025511
  38         0.11087212
  39         0.54466932
  40        -0.19255021
  41         0.02872178
  42        -0.00025263
  43        -0.11087258
  44        -1.23555300
  45        -0.00852409
  46         0.45105533
  47         0.00036072
  48        -0.36594498
Sym=    31a  
Ene=     1.4176
Spin= Alpha
Occup=    0.00000
   1        -0.22044163
   2        -0.85176147
   3         2.22467383
   4        -0.00000009
   5        -0.00000265
   6        -0.02967429
   7        -0.00000261
   8        -0.00000587
   9        -0.36600733
  10         0.13267678
  11        -0.00000355
  12         0.00000381
  13         0.81374183
  14         0.00314427
  15        -0.02466600
  16        -0.08135179
  17        -0.10707949
  18        -0.00000189
  19        -0.00000361
  20        -0.30163801
  21         0.00000544
  22         0.00000753
  23         0.85013618
  24        -0.00234466
  25        -0.00000143
  26        -0.00000367
  27         0.20953997
  28        -0.00032056
  29        -1.16416603
  30         0.40701145
  31         0.01611521
  32         0.00089086
  33         0.33326198
  34        -0.29666547
  35         0.05564758
  36        -0.05249122
  37        -0.00204559
  38        -0.08561071
  39        -0.29666554
  40         0.05564760
  41         0.05249013
  42         0.00203739
  43        -0.08561153
  44        -1.16416654
  45         0.40701168
  46        -0.01611068
  47        -0.00088739
  48         0.33326219
Sym=    32a  
Ene=     1.5774
Spin= Alpha
Occup=    0.00000
   1         0.00672723
   2        -0.19132083
   3        -1.36773327
   4        -0.00000449
   5         0.00002334
   6        -0.70863883
   7        -0.00000614
   8         0.00002101
   9        -0.93769004
  10        -0.61963269
  11        -0.00000440
  12        -0.00000358
  13        -0.38043100
  14        -0.00016798
  15         0.22826457
  16         1.18226527
  17         0.49870792
  18        -0.00000410
  19         0.00000615
  20        -0.65074023
  21        -0.00000476
  22        -0.00003402
  23        -0.63201475
  24        -0.07636587
  25        -0.00000002
  26         0.00000784
  27        -0.11564147
  28         0.00055462
  29         0.15194708
  30        -0.16421823
  31         0.21322793
  32        -0.00112041
  33         0.45086649
  34         0.16994610
  35         0.11410525
  36         0.01049148
  37         0.00024109
  38         0.28236088
  39         0.16994536
  40         0.11410530
  41        -0.01048753
  42        -0.00019860
  43         0.28236146
  44         0.15194694
  45        -0.16421819
  46        -0.21322162
  47         0.00104277
  48         0.45086869
Sym=    33a  
Ene=     1.5968
Spin= Alpha
Occup=    0.00000
   1        -0.00000222
   2        -0.00002046
   3        -0.00005936
   4        -0.00301449
   5        -0.37056420
   6        -0.00003723
   7        -0.01243980
   8        -0.40894828
   9        -0.00004531
  10        -0.00003255
  11         0.00222868
  12        -0.03827847
  13        -0.00002589
  14         0.00000006
  15         0.00001501
  16         0.00007427
  17         0.00000366
  18        -0.00982852
  19        -0.05115163
  20        -0.00002934
  21         0.04413547
  22         0.79705854
  23        -0.00004434
  24        -0.00000421
  25        -0.00334335
  26        -0.15698607
  27        -0.00000959
  28        -0.00000104
  29         0.00791782
  30        -0.00082157
  31        -0.00292091
  32         0.61211390
  33        -0.00746058
  34        -0.02171356
  35         0.00395682
  36        -0.01125304
  37        -0.53550968
  38         0.01417509
  39         0.02175015
  40        -0.00395096
  41        -0.01125257
  42        -0.53550932
  43        -0.01413895
  44        -0.00789693
  45         0.00079771
  46        -0.00294638
  47         0.61211428
  48         0.00750252
Sym=    34a  
Ene=     1.6060
Spin= Alpha
Occup=    0.00000
   1         0.00000022
   2         0.00000112
   3         0.00000104
   4        -0.16837885
   5         0.01037826
   6         0.00000199
   7        -0.51080823
   8         0.00952673
   9         0.00000419
  10         0.00000057
  11        -0.00141549
  12         0.00087477
  13         0.00000031
  14         0.00000490
  15        -0.00000021
  16        -0.00000107
  17        -0.00000054
  18        -0.43145958
  19         0.00186889
  20         0.00000311
  21         1.92248416
  22        -0.02280637
  23        -0.00001044
  24         0.00000118
  25        -0.09849932
  26         0.00328195
  27        -0.00000048
  28         0.00000155
  29         0.22250671
  30         0.03894807
  31        -0.06876529
  32        -0.01630213
  33        -0.24925074
  34        -1.02952713
  35         0.21971612
  36        -0.43219410
  37         0.01335920
  38         0.56729863
  39         1.02952576
  40        -0.21971611
  41        -0.43220171
  42         0.01336621
  43        -0.56729433
  44        -0.22250694
  45        -0.03894766
  46        -0.06876174
  47        -0.01629698
  48         0.24925104
Sym=    35a  
Ene=     1.7166
Spin= Alpha
Occup=    0.00000
   1        -0.00000558
   2        -0.00002579
   3        -0.00000401
   4        -0.00093172
   5        -0.18505920
   6        -0.00001239
   7        -0.01270661
   8         0.10733111
   9        -0.00000885
  10        -0.00000552
  11        -0.00905735
  12         0.76005850
  13        -0.00000209
  14         0.00000617
  15         0.00000378
  16         0.00001905
  17         0.00000274
  18        -0.00558762
  19        -0.30744499
  20        -0.00000344
  21         0.02122117
  22        -0.41836224
  23        -0.00003100
  24        -0.00000038
  25         0.00213345
  26        -0.07764039
  27        -0.00000428
  28         0.00000004
  29        -0.00120504
  30         0.00785909
  31        -0.00099660
  32         0.50895502
  33         0.00418126
  34        -0.01398464
  35         0.00570963
  36        -0.00240980
  37         0.57314819
  38        -0.00084797
  39         0.01400433
  40        -0.00571197
  41        -0.00240692
  42         0.57314883
  43         0.00087526
  44         0.00120074
  45        -0.00785825
  46        -0.00099878
  47         0.50895706
  48        -0.00417447
Sym=    36a  
Ene=     1.7451
Spin= Alpha
Occup=    0.00000
   1         0.00000014
   2         0.00000062
   3        -0.00000007
   4        -0.13361120
   5         0.00096541
   6         0.00000091
   7        -1.26710219
   8        -0.00315472
   9         0.00000813
  10         0.00000847
  11        -0.76927403
  12        -0.00704867
  13        -0.00000473
  14        -0.00003301
  15        -0.00000001
  16        -0.00000003
  17         0.00000021
  18        -0.41429075
  19         0.00522970
  20         0.00000253
  21         1.76640998
  22         0.00294609
  23        -0.00001052
  24        -0.00000255
  25         0.22552911
  26         0.00121156
  27         0.00000153
  28        -0.00001149
  29        -0.13266038
  30         0.82519148
  31         0.02385691
  32        -0.00347810
  33         0.47068573
  34        -1.07114049
  35         0.45359263
  36        -0.29527607
  37        -0.00800372
  38        -0.13011657
  39         1.07113940
  40        -0.45359226
  41        -0.29527464
  42        -0.00802482
  43         0.13011988
  44         0.13266003
  45        -0.82519131
  46         0.02385085
  47        -0.00353708
  48        -0.47068596
Sym=    37a  
Ene=     1.7752
Spin= Alpha
Occup=    0.00000
   1        -0.01245773
   2        -0.05027510
   3         0.01725223
   4        -0.00000240
   5         0.00000057
   6        -0.00906383
   7        -0.00005986
   8        -0.00000023
   9         0.00282884
  10         0.01130619
  11        -0.00002885
  12        -0.00000746
  13         0.00641011
  14         0.89494811
  15        -0.00094357
  16        -0.00250259
  17         0.00770446
  18        -0.00001549
  19         0.00000072
  20         0.02258395
  21         0.00006644
  22         0.00000077
  23        -0.06553438
  24         0.00180571
  25         0.00001105
  26        -0.00000170
  27        -0.00669021
  28         0.30176023
  29        -0.00318871
  30         0.00219975
  31        -0.00387948
  32        -0.72650581
  33        -0.00179462
  34         0.02135158
  35        -0.00727382
  36        -0.00392685
  37        -0.27302129
  38         0.02242266
  39         0.02143285
  40        -0.00731201
  41         0.00390712
  42         0.27301882
  43         0.02244099
  44        -0.00319834
  45         0.00214134
  46         0.00388188
  47         0.72650321
  48        -0.00183821
Sym=    38a  
Ene=     1.8060
Spin= Alpha
Occup=    0.00000
   1        -0.37189305
   2        -1.52514278
   3         0.21297350
   4        -0.00000224
   5         0.00000665
   6        -0.36544798
   7         0.00000154
   8         0.00000021
   9        -0.02797656
  10         0.26390578
  11         0.00000205
  12        -0.00001109
  13         0.27512571
  14        -0.02994822
  15        -0.06692456
  16        -0.21022775
  17         0.71445447
  18         0.00000404
  19         0.00000246
  20         0.60983936
  21        -0.00001476
  22         0.00000538
  23        -2.07027984
  24         0.05837906
  25         0.00000162
  26         0.00000265
  27        -0.19897480
  28        -0.00953121
  29        -0.04580337
  30         0.04638774
  31        -0.16009252
  32         0.02422202
  33        -0.03398616
  34         0.54624610
  35        -0.15563807
  36        -0.11224854
  37         0.00940108
  38         0.70970149
  39         0.54624397
  40        -0.15563701
  41         0.11225769
  42        -0.00941199
  43         0.70969919
  44        -0.04580293
  45         0.04638941
  46         0.16009207
  47        -0.02424245
  48        -0.03398674
Sym=    39a  
Ene=     2.1134
Spin= Alpha
Occup=    0.00000
   1         0.01635023
   2         0.14337338
   3         1.62591002
   4         0.00000652
   5        -0.00000038
   6         0.88003832
   7         0.00000220
   8        -0.00000121
   9         0.32361569
  10         0.72228845
  11         0.00000879
  12        -0.00000122
  13        -0.07720472
  14        -0.00229026
  15         0.27600129
  16         1.15439815
  17        -2.15390760
  18         0.00000444
  19        -0.00000309
  20         0.82202831
  21         0.00000688
  22        -0.00000243
  23         1.15457556
  24        -0.10994081
  25         0.00000193
  26        -0.00000075
  27        -0.48035783
  28         0.00018133
  29         0.08953784
  30        -0.03763172
  31        -0.01436994
  32         0.00110678
  33         0.35391040
  34        -0.16764978
  35        -0.27499610
  36         0.65313426
  37        -0.00033348
  38        -0.21150328
  39        -0.16765144
  40        -0.27499605
  41        -0.65313758
  42         0.00033672
  43        -0.21149385
  44         0.08953837
  45        -0.03763120
  46         0.01437508
  47        -0.00110658
  48         0.35391083
Sym=    40a  
Ene=     2.2044
Spin= Alpha
Occup=    0.00000
   1        -0.00000011
   2        -0.00000073
   3        -0.00000088
   4         1.27095547
   5         0.00129586
   6        -0.00000825
   7         0.00096407
   8         0.00031289
   9         0.00000010
  10        -0.00000241
  11         0.12079286
  12        -0.00309239
  13         0.00000075
  14        -0.00000254
  15         0.00000008
  16         0.00000039
  17         0.00000033
  18        -1.05644342
  19         0.00289897
  20         0.00000594
  21        -0.33476940
  22         0.00080691
  23         0.00000221
  24        -0.00000172
  25         0.15913542
  26        -0.00226715
  27         0.00000150
  28        -0.00000748
  29        -0.52584800
  30        -0.23359568
  31         0.45304599
  32         0.00034409
  33        -0.44738074
  34         0.72925017
  35         0.07363120
  36        -0.49544121
  37         0.00192766
  38        -0.52576270
  39        -0.72925069
  40        -0.07363070
  41        -0.49543391
  42         0.00191681
  43         0.52576929
  44         0.52584880
  45         0.23359590
  46         0.45305293
  47         0.00034856
  48         0.44737414
Sym=    41a  
Ene=     2.2630
Spin= Alpha
Occup=    0.00000
   1        -0.21150225
   2        -1.17697906
   3         0.54607184
   4         0.00000479
   5         0.00001197
   6         0.81003656
   7         0.00000286
   8        -0.00000230
   9         0.44042105
  10        -0.76750953
  11        -0.00000848
  12         0.00001086
  13        -0.06529577
  14        -0.00033191
  15         0.41705337
  16         1.76117877
  17        -2.08787433
  18        -0.00000263
  19         0.00000194
  20        -0.53642737
  21         0.00000669
  22        -0.00000443
  23         0.99983811
  24        -0.03177828
  25        -0.00000001
  26         0.00002371
  27        -0.06846512
  28        -0.00037954
  29         0.63310474
  30         0.13267528
  31        -0.90669442
  32        -0.00207404
  33        -0.13263253
  34        -0.04136698
  35        -0.12302548
  36         0.14279297
  37        -0.00009130
  38        -0.03104104
  39        -0.04136585
  40        -0.12302535
  41        -0.14279267
  42         0.00007712
  43        -0.03104000
  44         0.63310487
  45         0.13267481
  46         0.90669242
  47         0.00208244
  48        -0.13264454
Sym=    42a  
Ene=     2.3587
Spin= Alpha
Occup=    0.00000
   1         0.00000530
   2         0.00002898
   3        -0.00000170
   4         0.01083091
   5         0.30711374
   6        -0.00002108
   7         0.00036321
   8        -0.01568270
   9        -0.00000805
  10         0.00001503
  11        -0.00438448
  12         0.77029772
  13         0.00000633
  14         0.00000667
  15        -0.00000526
  16        -0.00002139
  17         0.00003163
  18         0.00217707
  19        -0.06070378
  20         0.00001053
  21         0.00106417
  22        -0.12163704
  23        -0.00001460
  24         0.00000545
  25         0.00213606
  26         1.17598961
  27         0.00000438
  28         0.00000410
  29        -0.00868166
  30         0.00047725
  31         0.00443529
  32         0.12993673
  33        -0.00366132
  34        -0.00213093
  35        -0.00015539
  36        -0.00019941
  37        -0.29858905
  38         0.00130712
  39         0.00212565
  40         0.00016122
  41        -0.00020049
  42        -0.29859232
  43        -0.00130573
  44         0.00863466
  45        -0.00047557
  46         0.00439034
  47         0.12993859
  48         0.00366457
Sym=    43a  
Ene=     2.3753
Spin= Alpha
Occup=    0.00000
   1         0.00292880
   2         0.01347171
   3         0.00730464
   4        -0.00000024
   5         0.00000089
   6        -0.00602255
   7         0.00001155
   8        -0.00000005
   9         0.00730314
  10        -0.00574574
  11         0.00000923
  12         0.00000590
  13         0.00770212
  14        -0.53594114
  15         0.00520008
  16         0.02296172
  17        -0.01833313
  18        -0.00001127
  19        -0.00000014
  20         0.00154245
  21        -0.00001375
  22        -0.00000034
  23         0.00969256
  24        -0.00003556
  25         0.00000346
  26        -0.00000319
  27         0.00638769
  28         1.07546510
  29        -0.01088817
  30         0.00413567
  31         0.00319778
  32         0.30103943
  33        -0.00614491
  34        -0.00757783
  35         0.00092878
  36         0.00495121
  37        -0.51717549
  38         0.00204421
  39        -0.00760904
  40         0.00093294
  41        -0.00496166
  42         0.51717346
  43         0.00205864
  44        -0.01088912
  45         0.00414658
  46        -0.00320116
  47        -0.30103862
  48        -0.00613913
Sym=    44a  
Ene=     2.5573
Spin= Alpha
Occup=    0.00000
   1        -0.25611149
   2        -1.22577931
   3        -0.93691508
   4         0.00001093
   5         0.00000733
   6         0.99815403
   7        -0.00000548
   8        -0.00000034
   9        -0.68133985
  10         0.70357012
  11         0.00001020
  12         0.00000106
  13        -0.89247257
  14        -0.00874589
  15        -0.47082529
  16        -2.15855244
  17         1.01312114
  18         0.00000138
  19         0.00000048
  20        -0.15777787
  21        -0.00000392
  22         0.00000150
  23        -0.90790822
  24        -0.16678523
  25         0.00000162
  26         0.00000678
  27        -0.42135735
  28         0.01214280
  29         1.52440945
  30        -0.55458723
  31        -0.48223767
  32         0.00145528
  33         0.71250853
  34         1.20984223
  35        -0.29969893
  36        -0.71596981
  37        -0.00237546
  38        -0.27860250
  39         1.20984883
  40        -0.29970000
  41         0.71596831
  42         0.00237518
  43        -0.27861375
  44         1.52441897
  45        -0.55459055
  46         0.48225148
  47        -0.00144624
  48         0.71250414
Sym=    45a  
Ene=     2.5911
Spin= Alpha
Occup=    0.00000
   1         0.00000067
   2         0.00000320
   3         0.00000240
   4         1.75433501
   5         0.00310541
   6        -0.00001389
   7        -0.44920218
   8        -0.00037283
   9         0.00000463
  10         0.00001390
  11        -1.39634953
  12        -0.00581624
  13        -0.00000670
  14        -0.00000933
  15         0.00000117
  16         0.00000535
  17        -0.00000255
  18         0.98988321
  19        -0.00122674
  20        -0.00000592
  21         0.77942705
  22        -0.00169677
  23        -0.00000279
  24        -0.00000207
  25         0.22339917
  26        -0.00686179
  27         0.00000240
  28         0.00000544
  29        -1.88984986
  30         0.68241173
  31         0.92004295
  32         0.00156586
  33        -0.34637827
  34        -1.30868872
  35         0.18914271
  36         0.43612912
  37        -0.00012816
  38         0.42885780
  39         1.30868276
  40        -0.18914127
  41         0.43611997
  42        -0.00011981
  43        -0.42886204
  44         1.88984203
  45        -0.68240893
  46         0.92004481
  47         0.00157073
  48         0.34636285
Sym=    46a  
Ene=     2.7550
Spin= Alpha
Occup=    0.00000
   1        -0.41949007
   2        -1.97512472
   3        -0.60690253
   4        -0.00000783
   5         0.00000444
   6        -1.21001895
   7        -0.00000196
   8        -0.00000021
   9        -0.31078966
  10        -0.47445358
  11        -0.00000356
  12         0.00000110
  13        -0.27702630
  14        -0.00142240
  15        -0.22591309
  16        -0.71020087
  17         2.93651549
  18        -0.00000240
  19         0.00000058
  20        -0.36162551
  21        -0.00000632
  22         0.00000219
  23        -0.97414784
  24         1.38838285
  25         0.00001568
  26        -0.00000516
  27        -0.04257044
  28         0.00165236
  29         0.49022819
  30        -0.24973614
  31        -0.15625983
  32        -0.00026189
  33         0.17049867
  34        -0.19046042
  35         0.17703809
  36         0.21257444
  37        -0.00114665
  38        -0.25236925
  39        -0.19046067
  40         0.17703817
  41        -0.21257777
  42         0.00114741
  43        -0.25236642
  44         0.49022824
  45        -0.24973615
  46         0.15626202
  47         0.00026468
  48         0.17049661
Sym=    47a  
Ene=     3.0565
Spin= Alpha
Occup=    0.00000
   1        -0.15187715
   2        -0.84586689
   3        -1.55807406
   4         0.00000307
   5         0.00000477
   6         0.47486939
   7        -0.00000295
   8         0.00000142
   9        -0.46005245
  10         0.42686064
  11         0.00001028
  12        -0.00000075
  13        -0.90588959
  14        -0.00251360
  15        -0.19157174
  16        -0.44896780
  17         3.27736654
  18         0.00000632
  19        -0.00000295
  20         0.98746230
  21        -0.00000349
  22         0.00000036
  23        -0.54578910
  24        -0.21300907
  25        -0.00001057
  26        -0.00000155
  27         1.21671394
  28        -0.00427526
  29         1.39204631
  30        -0.38396569
  31        -0.36088658
  32        -0.00165132
  33         0.53287851
  34        -1.96605768
  35         0.76875526
  36         0.60789563
  37        -0.00256967
  38         0.59534384
  39        -1.96605812
  40         0.76875554
  41        -0.60788815
  42         0.00256555
  43         0.59535164
  44         1.39204678
  45        -0.38396595
  46         0.36089361
  47         0.00165914
  48         0.53287375
Sym=    48a  
Ene=     3.3387
Spin= Alpha
Occup=    0.00000
   1        -0.00000004
   2        -0.00000024
   3        -0.00000028
   4        -0.39870289
   5        -0.00183372
   6         0.00000257
   7        -0.62038260
   8        -0.00007082
   9         0.00000396
  10        -0.00001402
  11         1.25542771
  12         0.00135922
  13         0.00000793
  14         0.00000180
  15         0.00000000
  16         0.00000012
  17         0.00000066
  18         0.75780872
  19        -0.00325115
  20        -0.00000469
  21         0.64262164
  22        -0.00084334
  23        -0.00000421
  24        -0.00001853
  25         1.66409677
  26        -0.00247952
  27         0.00001097
  28        -0.00000556
  29         1.28809675
  30        -0.35358090
  31        -0.44692926
  32        -0.00140803
  33        -0.05514402
  34        -1.99447573
  35         0.84481293
  36         0.73926283
  37        -0.00239435
  38         0.26082764
  39         1.99447466
  40        -0.84481251
  41         0.73925908
  42        -0.00239294
  43        -0.26083693
  44        -1.28809624
  45         0.35358078
  46        -0.44692837
  47        -0.00141519
  48         0.05514991
