 [Molden Format]
 [N_GEO]
                    5
 [GEOCONV]
 energy
-9.43972190292539466E+01
-9.44117313780512291E+01
-9.44129582779382872E+01
-9.44129634302320255E+01
-9.44129637596459048E+01
 max-force
   0.0812415
   0.0256723
   0.0025183
   0.0003105
   0.0000000
 rms-force
   0.0204863
   0.0063126
   0.0004948
   0.0000820
   0.0000000
 [GEOMETRIES] (XYZ)
   6
  -94.397219029253947     
 C      0.0000000      0.0000000      0.0000000
 N      0.0000000      0.0000000      1.3500000
 H      0.9431020      0.0000000     -0.5445000
 H      0.9431020      0.0000000      1.8795000
 H     -0.9431020      0.0000000      1.8795000
 H     -0.9431020      0.0000000     -0.5445000
   6
  -94.411731378051229     
 C      0.0000000     -0.0000000      0.0236101
 N      0.0000000     -0.0000000      1.3170219
 H      0.9455290     -0.0000000     -0.5106136
 H      0.8807002      0.0000000      1.8502976
 H     -0.8807002     -0.0000000      1.8502976
 H     -0.9455290      0.0000000     -0.5106136
   6
  -94.412958277938287     
 C      0.0000000      0.0000001      0.0366687
 N      0.0000000      0.0000000      1.3082268
 H      0.9410625      0.0000000     -0.4986900
 H      0.8616863     -0.0000001      1.8362422
 H     -0.8616863      0.0000000      1.8362422
 H     -0.9410625     -0.0000001     -0.4986900
   6
  -94.412963430232026     
 C      0.0000000     -0.0000004      0.0355566
 N      0.0000000     -0.0000001      1.3083674
 H      0.9407818      0.0000000     -0.4995062
 H      0.8609973      0.0000002      1.8375442
 H     -0.8609973     -0.0000000      1.8375442
 H     -0.9407818      0.0000003     -0.4995062
   6
  -94.412963759645905     
 C      0.0000000      0.0000030      0.0352220
 N      0.0000000      0.0000009      1.3081585
 H      0.9408053     -0.0000004     -0.4995985
 H      0.8605779     -0.0000016      1.8379083
 H     -0.8605779      0.0000002      1.8379083
 H     -0.9408053     -0.0000021     -0.4995985
 [FORCES]
point    1
   6
     -0.0000000     -0.0000000      0.1535242
      0.0000000     -0.0000000     -0.0946891
     -0.0050769      0.0000000      0.0113493
     -0.0943015      0.0000000     -0.0407669
      0.0943015     -0.0000000     -0.0407669
      0.0050769      0.0000000      0.0113493
point    2
   6
      0.0000000      0.0000000      0.0485135
     -0.0000000      0.0000000     -0.0255106
     -0.0047140     -0.0000000      0.0032724
     -0.0284261     -0.0000000     -0.0147738
      0.0284261     -0.0000000     -0.0147738
      0.0047140     -0.0000000      0.0032724
point    3
   6
      0.0000000     -0.0000001     -0.0047588
      0.0000000     -0.0000000      0.0024097
     -0.0006024      0.0000000      0.0003287
     -0.0005685      0.0000000      0.0008459
      0.0005685      0.0000000      0.0008459
      0.0006024      0.0000000      0.0003287
point    4
   6
     -0.0000000      0.0000003     -0.0005868
     -0.0000000     -0.0000000     -0.0003450
     -0.0000842     -0.0000001      0.0001465
     -0.0002642     -0.0000000      0.0003194
      0.0002642      0.0000000      0.0003194
      0.0000842     -0.0000001      0.0001465
point    5
   6
      0.0000000      0.0000000      0.0000000
      0.0000000      0.0000000      0.0000000
      0.0000000      0.0000000      0.0000000
      0.0000000      0.0000000      0.0000000
      0.0000000      0.0000000      0.0000000
      0.0000000      0.0000000      0.0000000
