[Molden Format]
[N_Atoms]
                    6
[Atoms] (AU)
C1          1      6           0.00000000      0.00000000      0.00000000
N2          2      7           0.00000000      0.00000000      2.55113027
H3          3      1           1.78220449      0.00000000     -1.02895588
H4          4      1           1.78220449      0.00000000      3.55174025
H5          5      1          -1.78220449      0.00000000      3.55174025
H6          6      1          -1.78220449      0.00000000     -1.02895588
[5D]
[7F]
[9G]
[Charge] (Mulliken)
   0.0000000000000000     
   0.0000000000000000     
   0.0000000000000000     
   0.0000000000000000     
   0.0000000000000000     
   0.0000000000000000     
[GTO] (AU)
   1
   s   9
  6.665000000E+03  6.920001793E-04
  1.000000000E+03  5.329001381E-03
  2.280000000E+02  2.707700701E-02
  6.471000000E+01  1.017180264E-01
  2.106000000E+01  2.747400712E-01
  7.495000000E+00  4.485641162E-01
  2.797000000E+00  2.850740738E-01
  5.215000000E-01  1.520400394E-02
  1.596000000E-01 -3.191000827E-03
   s   9
  6.665000000E+03 -1.460000642E-04
  1.000000000E+03 -1.154000508E-03
  2.280000000E+02 -5.725002519E-03
  6.471000000E+01 -2.331201026E-02
  2.106000000E+01 -6.395502813E-02
  7.495000000E+00 -1.499810660E-01
  2.797000000E+00 -1.272620560E-01
  5.215000000E-01  5.445292395E-01
  1.596000000E-01  5.804962554E-01
   s   1
  1.596000000E-01  1.000000000E+00
   p   4
  9.439000000E+00  3.810902127E-02
  2.002000000E+00  2.094801169E-01
  5.456000000E-01  5.085572839E-01
  1.517000000E-01  4.688422617E-01
   p   1
  1.517000000E-01  1.000000000E+00
   d   1
  5.500000000E-01  1.000000000E+00
 
   2
   s   9
  9.046000000E+03  7.000000346E-04
  1.357000000E+03  5.389000266E-03
  3.093000000E+02  2.740600135E-02
  8.773000000E+01  1.032070051E-01
  2.856000000E+01  2.787230138E-01
  1.021000000E+01  4.485400222E-01
  3.838000000E+00  2.782380137E-01
  7.466000000E-01  1.544000076E-02
  2.248000000E-01 -2.864000141E-03
   s   9
  9.046000000E+03 -1.529999886E-04
  1.357000000E+03 -1.207999910E-03
  3.093000000E+02 -5.991999553E-03
  8.773000000E+01 -2.454399817E-02
  2.856000000E+01 -6.745899497E-02
  1.021000000E+01 -1.580779882E-01
  3.838000000E+00 -1.218309909E-01
  7.466000000E-01  5.490029590E-01
  2.248000000E-01  5.788149568E-01
   s   1
  2.248000000E-01  1.000000000E+00
   p   4
  1.355000000E+01  3.991901233E-02
  2.917000000E+00  2.171690671E-01
  7.973000000E-01  5.103191576E-01
  2.185000000E-01  4.622141427E-01
   p   1
  2.185000000E-01  1.000000000E+00
   d   1
  8.170000000E-01  1.000000000E+00
 
   3
   s   4
  1.301000000E+01  1.968498999E-02
  1.962000000E+00  1.379769298E-01
  4.446000000E-01  4.781477569E-01
  1.220000000E-01  5.012397451E-01
   s   1
  1.220000000E-01  1.000000000E+00
   p   1
  7.270000000E-01  1.000000000E+00
 
   4
   s   4
  1.301000000E+01  1.968498999E-02
  1.962000000E+00  1.379769298E-01
  4.446000000E-01  4.781477569E-01
  1.220000000E-01  5.012397451E-01
   s   1
  1.220000000E-01  1.000000000E+00
   p   1
  7.270000000E-01  1.000000000E+00
 
   5
   s   4
  1.301000000E+01  1.968498999E-02
  1.962000000E+00  1.379769298E-01
  4.446000000E-01  4.781477569E-01
  1.220000000E-01  5.012397451E-01
   s   1
  1.220000000E-01  1.000000000E+00
   p   1
  7.270000000E-01  1.000000000E+00
 
   6
   s   4
  1.301000000E+01  1.968498999E-02
  1.962000000E+00  1.379769298E-01
  4.446000000E-01  4.781477569E-01
  1.220000000E-01  5.012397451E-01
   s   1
  1.220000000E-01  1.000000000E+00
   p   1
  7.270000000E-01  1.000000000E+00
 
[MO]
Sym=     1a  
Ene=   -15.6420
Spin= Alpha
Occup=    2.00000
   1         0.00189619
   2         0.00215341
   3        -0.00017008
   4         0.00000000
   5        -0.00000000
   6         0.00224707
   7         0.00000000
   8        -0.00000000
   9        -0.00018632
  10         0.00000000
  11        -0.00000000
  12        -0.00000000
  13         0.00000000
  14         0.00000000
  15         0.99813110
  16        -0.00046167
  17         0.00693979
  18         0.00000000
  19        -0.00000000
  20        -0.00002391
  21         0.00000000
  22         0.00000000
  23         0.00000122
  24         0.00000000
  25         0.00000000
  26        -0.00000000
  27         0.00000000
  28        -0.00000000
  29         0.00036675
  30        -0.00005326
  31         0.00000000
  32        -0.00000000
  33        -0.00000000
  34         0.00247587
  35        -0.00035956
  36         0.00000000
  37        -0.00000000
  38         0.00000000
  39         0.00247587
  40        -0.00035956
  41        -0.00000000
  42        -0.00000000
  43        -0.00000000
  44         0.00036675
  45        -0.00005326
  46         0.00000000
  47         0.00000000
  48         0.00000000
Sym=     2a  
Ene=   -11.3390
Spin= Alpha
Occup=    2.00000
   1         0.99794591
   2        -0.00173999
   3         0.00521492
   4        -0.00000000
   5        -0.00000000
   6         0.00003879
   7         0.00000000
   8        -0.00000000
   9        -0.00000322
  10        -0.00000000
  11         0.00000000
  12         0.00000000
  13        -0.00000000
  14        -0.00000000
  15        -0.00278416
  16         0.00383146
  17        -0.00004470
  18        -0.00000000
  19         0.00000000
  20        -0.00410137
  21        -0.00000000
  22         0.00000000
  23         0.00020902
  24         0.00000000
  25        -0.00000000
  26         0.00000000
  27         0.00000000
  28        -0.00000000
  29         0.00422349
  30        -0.00061336
  31         0.00000000
  32         0.00000000
  33        -0.00000000
  34         0.00065114
  35        -0.00009456
  36         0.00000000
  37        -0.00000000
  38         0.00000000
  39         0.00065114
  40        -0.00009456
  41         0.00000000
  42        -0.00000000
  43         0.00000000
  44         0.00422349
  45        -0.00061336
  46        -0.00000000
  47        -0.00000000
  48         0.00000000
Sym=     3a  
Ene=    -1.5772
Spin= Alpha
Occup=    2.00000
   1        -0.05091822
   2         0.34809448
   3        -0.02930846
   4        -0.00000000
   5         0.00000000
   6         0.10087238
   7         0.00000000
   8        -0.00000000
   9        -0.00836418
  10         0.00000000
  11         0.00000000
  12        -0.00000000
  13        -0.00000000
  14         0.00000000
  15        -0.05060218
  16         0.52804347
  17        -0.00384503
  18         0.00000000
  19        -0.00000000
  20        -0.06068240
  21        -0.00000000
  22         0.00000000
  23         0.00309251
  24        -0.00000000
  25        -0.00000000
  26        -0.00000000
  27         0.00000000
  28        -0.00000000
  29         0.13873076
  30        -0.02014731
  31        -0.00000000
  32        -0.00000000
  33         0.00000000
  34         0.19158976
  35        -0.02782381
  36        -0.00000000
  37         0.00000000
  38        -0.00000000
  39         0.19158976
  40        -0.02782381
  41        -0.00000000
  42        -0.00000000
  43         0.00000000
  44         0.13873076
  45        -0.02014731
  46        -0.00000000
  47        -0.00000000
  48        -0.00000000
Sym=     4a  
Ene=    -1.0658
Spin= Alpha
Occup=    2.00000
   1         0.04204961
   2        -0.43895852
   3         0.03684635
   4         0.00000000
   5        -0.00000000
   6         0.19408297
   7        -0.00000000
   8         0.00000000
   9        -0.01609306
  10        -0.00000000
  11        -0.00000000
  12        -0.00000000
  13        -0.00000000
  14         0.00000000
  15        -0.01667629
  16         0.33048679
  17        -0.00230229
  18        -0.00000000
  19        -0.00000000
  20         0.29158856
  21         0.00000000
  22         0.00000000
  23        -0.01486002
  24         0.00000000
  25        -0.00000000
  26        -0.00000000
  27         0.00000000
  28         0.00000000
  29        -0.29309763
  30         0.04256540
  31         0.00000000
  32        -0.00000000
  33        -0.00000000
  34         0.19735101
  35        -0.02866050
  36        -0.00000000
  37         0.00000000
  38         0.00000000
  39         0.19735101
  40        -0.02866050
  41        -0.00000000
  42         0.00000000
  43         0.00000000
  44        -0.29309763
  45         0.04256540
  46        -0.00000000
  47         0.00000000
  48         0.00000000
Sym=     5a  
Ene=    -0.8943
Spin= Alpha
Occup=    2.00000
   1         0.00000000
   2         0.00000000
   3        -0.00000000
   4         0.35364818
   5        -0.00000000
   6         0.00000000
   7        -0.02932397
   8         0.00000000
   9        -0.00000000
  10        -0.00000000
  11        -0.00000000
  12         0.00000000
  13        -0.00000000
  14         0.00000000
  15        -0.00000000
  16        -0.00000000
  17         0.00000000
  18         0.54496795
  19        -0.00000000
  20         0.00000000
  21        -0.02777281
  22        -0.00000000
  23        -0.00000000
  24         0.00000000
  25         0.00000000
  26         0.00000000
  27         0.00000000
  28        -0.00000000
  29         0.22248708
  30        -0.03231091
  31        -0.00000000
  32        -0.00000000
  33         0.00000000
  34         0.28040839
  35        -0.04072259
  36        -0.00000000
  37         0.00000000
  38         0.00000000
  39        -0.28040839
  40         0.04072259
  41         0.00000000
  42        -0.00000000
  43         0.00000000
  44        -0.22248708
  45         0.03231091
  46         0.00000000
  47         0.00000000
  48         0.00000000
Sym=     6a  
Ene=    -0.6891
Spin= Alpha
Occup=    2.00000
   1         0.01571824
   2         0.00181042
   3        -0.00007124
   4        -0.00000000
   5        -0.00000000
   6        -0.46620772
   7         0.00000000
   8         0.00000000
   9         0.03865723
  10         0.00000000
  11         0.00000000
  12        -0.00000000
  13         0.00000000
  14         0.00000000
  15         0.00631679
  16        -0.10636755
  17         0.00074759
  18        -0.00000000
  19        -0.00000000
  20         0.66347266
  21        -0.00000000
  22         0.00000000
  23        -0.03381208
  24         0.00000000
  25         0.00000000
  26        -0.00000000
  27        -0.00000000
  28        -0.00000000
  29         0.23924741
  30        -0.03474494
  31        -0.00000000
  32        -0.00000000
  33        -0.00000000
  34         0.19961791
  35        -0.02898971
  36        -0.00000000
  37         0.00000000
  38        -0.00000000
  39         0.19961791
  40        -0.02898971
  41        -0.00000000
  42        -0.00000000
  43        -0.00000000
  44         0.23924741
  45        -0.03474494
  46        -0.00000000
  47         0.00000000
  48        -0.00000000
Sym=     7a  
Ene=    -0.6470
Spin= Alpha
Occup=    2.00000
   1         0.00000000
   2        -0.00000000
   3        -0.00000000
   4        -0.00000000
   5         0.45347328
   6        -0.00000000
   7        -0.00000000
   8        -0.03760131
   9         0.00000000
  10        -0.00000000
  11        -0.00000000
  12        -0.00000000
  13        -0.00000000
  14        -0.00000000
  15        -0.00000000
  16        -0.00000000
  17         0.00000000
  18         0.00000000
  19         0.83873414
  20         0.00000000
  21        -0.00000000
  22        -0.04274381
  23         0.00000000
  24        -0.00000000
  25        -0.00000000
  26         0.00000000
  27         0.00000000
  28         0.00000000
  29         0.00000000
  30         0.00000000
  31         0.00000000
  32        -0.00000000
  33        -0.00000000
  34        -0.00000000
  35         0.00000000
  36         0.00000000
  37        -0.00000000
  38         0.00000000
  39        -0.00000000
  40         0.00000000
  41        -0.00000000
  42         0.00000000
  43         0.00000000
  44        -0.00000000
  45         0.00000000
  46         0.00000000
  47        -0.00000000
  48         0.00000000
Sym=     8a  
Ene=    -0.5977
Spin= Alpha
Occup=    2.00000
   1        -0.00000000
   2        -0.00000000
   3        -0.00000000
   4        -0.49471996
   5        -0.00000000
   6        -0.00000000
   7         0.04102142
   8         0.00000000
   9        -0.00000000
  10        -0.00000000
  11        -0.00000000
  12         0.00000000
  13        -0.00000000
  14         0.00000000
  15        -0.00000000
  16        -0.00000000
  17         0.00000000
  18         0.45981786
  19        -0.00000000
  20        -0.00000000
  21        -0.02343337
  22        -0.00000000
  23        -0.00000000
  24         0.00000000
  25        -0.00000000
  26         0.00000000
  27         0.00000000
  28         0.00000000
  29        -0.44178278
  30         0.06415835
  31         0.00000000
  32         0.00000000
  33         0.00000000
  34         0.28693565
  35        -0.04167052
  36        -0.00000000
  37        -0.00000000
  38        -0.00000000
  39        -0.28693565
  40         0.04167052
  41        -0.00000000
  42         0.00000000
  43         0.00000000
  44         0.44178278
  45        -0.06415835
  46         0.00000000
  47         0.00000000
  48         0.00000000
Sym=     9a  
Ene=    -0.3584
Spin= Alpha
Occup=    1.00000
   1         0.00000000
   2         0.00000000
   3        -0.00000000
   4         0.00000000
   5        -1.01197878
   6        -0.00000000
   7        -0.00000000
   8         0.08391173
   9         0.00000000
  10        -0.00000000
  11        -0.00000000
  12        -0.00000000
  13         0.00000000
  14         0.00000000
  15        -0.00000000
  16        -0.00000000
  17         0.00000000
  18         0.00000000
  19         0.67860510
  20        -0.00000000
  21        -0.00000000
  22        -0.03458327
  23         0.00000000
  24         0.00000000
  25        -0.00000000
  26        -0.00000000
  27         0.00000000
  28         0.00000000
  29        -0.00000000
  30         0.00000000
  31         0.00000000
  32        -0.00000000
  33        -0.00000000
  34        -0.00000000
  35        -0.00000000
  36         0.00000000
  37        -0.00000000
  38         0.00000000
  39        -0.00000000
  40        -0.00000000
  41        -0.00000000
  42         0.00000000
  43         0.00000000
  44         0.00000000
  45        -0.00000000
  46         0.00000000
  47        -0.00000000
  48         0.00000000
Sym=    10a  
Ene=    -0.2126
Spin= Alpha
Occup=    0.00000
   1         0.00087909
   2         0.06687711
   3        -0.00557668
   4         0.00000000
   5         0.00000000
   6         0.26778554
   7        -0.00000000
   8        -0.00000000
   9        -0.02220437
  10        -0.00000000
  11        -0.00000000
  12        -0.00000000
  13        -0.00000000
  14        -0.00000000
  15        -0.12182000
  16        -1.22357865
  17         0.00724818
  18        -0.00000000
  19        -0.00000000
  20        -0.43206507
  21        -0.00000000
  22         0.00000000
  23         0.02201902
  24        -0.00000000
  25        -0.00000000
  26        -0.00000000
  27        -0.00000000
  28        -0.00000000
  29         0.00752064
  30        -0.00109219
  31        -0.00000000
  32         0.00000000
  33        -0.00000000
  34         0.94056704
  35        -0.13659479
  36        -0.00000000
  37         0.00000000
  38        -0.00000000
  39         0.94056704
  40        -0.13659479
  41         0.00000000
  42         0.00000000
  43         0.00000000
  44         0.00752064
  45        -0.00109219
  46         0.00000000
  47        -0.00000000
  48        -0.00000000
Sym=    11a  
Ene=    -0.1850
Spin= Alpha
Occup=    0.00000
   1         0.00000000
   2         0.00000000
   3        -0.00000000
   4         0.21505160
   5         0.00000000
   6         0.00000000
   7        -0.01783175
   8        -0.00000000
   9        -0.00000000
  10        -0.00000000
  11        -0.00000000
  12         0.00000000
  13        -0.00000000
  14        -0.00000000
  15        -0.00000000
  16        -0.00000000
  17        -0.00000000
  18         1.04536000
  19        -0.00000000
  20        -0.00000000
  21        -0.05327393
  22         0.00000000
  23        -0.00000000
  24        -0.00000000
  25         0.00000000
  26        -0.00000000
  27         0.00000000
  28         0.00000000
  29        -0.26227068
  30         0.03808852
  31         0.00000000
  32         0.00000000
  33        -0.00000000
  34        -1.04896134
  35         0.15233646
  36         0.00000000
  37        -0.00000000
  38         0.00000000
  39         1.04896134
  40        -0.15233646
  41         0.00000000
  42        -0.00000000
  43        -0.00000000
  44         0.26227068
  45        -0.03808852
  46         0.00000000
  47        -0.00000000
  48        -0.00000000
Sym=    12a  
Ene=    -0.1567
Spin= Alpha
Occup=    0.00000
   1        -0.13688199
   2        -1.12097511
   3         0.09285418
   4        -0.00000000
   5        -0.00000000
   6        -1.06308766
   7         0.00000000
   8         0.00000000
   9         0.08814960
  10         0.00000000
  11         0.00000000
  12        -0.00000000
  13        -0.00000000
  14         0.00000000
  15         0.07973293
  16         0.68868664
  17        -0.00400200
  18         0.00000000
  19         0.00000000
  20        -1.07132114
  21        -0.00000000
  22        -0.00000000
  23         0.05459697
  24         0.00000000
  25         0.00000000
  26        -0.00000000
  27        -0.00000000
  28         0.00000000
  29         0.09063817
  30        -0.01316302
  31        -0.00000000
  32        -0.00000000
  33        -0.00000000
  34         0.27751323
  35        -0.04030214
  36        -0.00000000
  37         0.00000000
  38        -0.00000000
  39         0.27751323
  40        -0.04030214
  41         0.00000000
  42         0.00000000
  43        -0.00000000
  44         0.09063817
  45        -0.01316302
  46         0.00000000
  47        -0.00000000
  48        -0.00000000
Sym=    13a  
Ene=    -0.1384
Spin= Alpha
Occup=    0.00000
   1        -0.15929631
   2        -1.30276215
   3         0.10791112
   4        -0.00000000
   5        -0.00000000
   6         0.85709217
   7         0.00000000
   8         0.00000000
   9        -0.07106877
  10         0.00000000
  11         0.00000000
  12         0.00000000
  13         0.00000000
  14         0.00000000
  15        -0.01126039
  16        -0.01821718
  17         0.00004226
  18        -0.00000000
  19        -0.00000000
  20         0.07302830
  21        -0.00000000
  22         0.00000000
  23        -0.00372169
  24        -0.00000000
  25         0.00000000
  26        -0.00000000
  27        -0.00000000
  28         0.00000000
  29         1.09625262
  30        -0.15920439
  31         0.00000000
  32        -0.00000000
  33        -0.00000000
  34        -0.12302657
  35         0.01786666
  36        -0.00000000
  37        -0.00000000
  38        -0.00000000
  39        -0.12302657
  40         0.01786666
  41        -0.00000000
  42         0.00000000
  43        -0.00000000
  44         1.09625262
  45        -0.15920439
  46        -0.00000000
  47        -0.00000000
  48        -0.00000000
Sym=    14a  
Ene=    -0.1224
Spin= Alpha
Occup=    0.00000
   1         0.00000000
   2        -0.00000000
   3        -0.00000000
   4         1.38059672
   5         0.00000000
   6        -0.00000000
   7        -0.11447697
   8         0.00000000
   9        -0.00000000
  10        -0.00000000
  11        -0.00000000
  12         0.00000000
  13        -0.00000000
  14        -0.00000000
  15        -0.00000000
  16        -0.00000000
  17         0.00000000
  18        -0.46143286
  19         0.00000000
  20        -0.00000000
  21         0.02351567
  22        -0.00000000
  23        -0.00000000
  24         0.00000000
  25        -0.00000000
  26         0.00000000
  27         0.00000000
  28        -0.00000000
  29        -1.12729624
  30         0.16371273
  31         0.00000000
  32         0.00000000
  33         0.00000000
  34         0.22410103
  35        -0.03254530
  36        -0.00000000
  37         0.00000000
  38         0.00000000
  39        -0.22410103
  40         0.03254530
  41         0.00000000
  42         0.00000000
  43        -0.00000000
  44         1.12729624
  45        -0.16371273
  46         0.00000000
  47         0.00000000
  48         0.00000000
Sym=    15a  
Ene=     3.6783
Spin= Alpha
Occup=    0.00000
   1        -0.00000000
   2        -0.00000000
   3         0.00000000
   4        -0.18218206
   5        -0.00000000
   6        -0.00000000
   7         2.44792330
   8        -0.00000000
   9         0.00000000
  10         0.00000000
  11        -0.26579430
  12        -0.00000000
  13        -0.00000000
  14         0.00000000
  15         0.00000000
  16         0.00000000
  17        -0.00000000
  18         0.06517484
  19        -0.00000000
  20        -0.00000000
  21        -0.67462853
  22         0.00000000
  23         0.00000000
  24        -0.00000000
  25        -0.01569508
  26        -0.00000000
  27        -0.00000000
  28         0.00000000
  29         0.35914933
  30        -2.71145331
  31         0.20848456
  32        -0.00000000
  33        -0.16791959
  34         0.19309854
  35         0.09849067
  36        -0.04226150
  37         0.00000000
  38        -0.01852536
  39        -0.19309854
  40        -0.09849067
  41        -0.04226150
  42         0.00000000
  43         0.01852536
  44        -0.35914933
  45         2.71145331
  46         0.20848456
  47        -0.00000000
  48         0.16791959
Sym=    16a  
Ene=     3.7619
Spin= Alpha
Occup=    0.00000
   1         0.22367109
   2         0.81275575
   3        -2.66861575
   4         0.00000000
   5        -0.00000000
   6        -0.10410673
   7        -0.00000000
   8         0.00000000
   9         1.40941022
  10         0.06994791
  11        -0.00000000
  12         0.00000000
  13        -0.26678440
  14        -0.00000000
  15        -0.00651498
  16        -0.04495638
  17        -0.10247301
  18        -0.00000000
  19         0.00000000
  20         0.01371075
  21         0.00000000
  22        -0.00000000
  23         0.40374710
  24        -0.02039502
  25         0.00000000
  26         0.00000000
  27         0.03378838
  28         0.00000000
  29        -0.54033493
  30         2.09353999
  31        -0.25220663
  32        -0.00000000
  33         0.10600072
  34         0.14802014
  35        -0.56973309
  36         0.05495346
  37         0.00000000
  38         0.02205297
  39         0.14802014
  40        -0.56973309
  41        -0.05495346
  42        -0.00000000
  43         0.02205297
  44        -0.54033493
  45         2.09353999
  46         0.25220663
  47        -0.00000000
  48         0.10600072
Sym=    17a  
Ene=     3.8031
Spin= Alpha
Occup=    0.00000
   1         0.00000000
   2         0.00000000
   3        -0.00000000
   4         0.10655593
   5         0.00000000
   6         0.00000000
   7        -0.51091584
   8        -0.00000000
   9        -0.00000000
  10        -0.00000000
  11        -0.11405465
  12         0.00000000
  13         0.00000000
  14        -0.00000000
  15        -0.00000000
  16        -0.00000000
  17         0.00000000
  18        -0.19666802
  19         0.00000000
  20         0.00000000
  21         1.48503456
  22         0.00000000
  23        -0.00000000
  24         0.00000000
  25         0.16245693
  26        -0.00000000
  27        -0.00000000
  28        -0.00000000
  29         0.14490749
  30         0.15285537
  31         0.01757614
  32        -0.00000000
  33         0.01342285
  34         0.51193484
  35        -1.96799054
  36         0.24356248
  37         0.00000000
  38         0.21330089
  39        -0.51193484
  40         1.96799054
  41         0.24356248
  42         0.00000000
  43        -0.21330089
  44        -0.14490749
  45        -0.15285537
  46         0.01757614
  47        -0.00000000
  48        -0.01342285
Sym=    18a  
Ene=     3.8563
Spin= Alpha
Occup=    0.00000
   1         0.17832693
   2         0.67068364
   3        -2.98509555
   4        -0.00000000
   5         0.00000000
   6         0.17061621
   7         0.00000000
   8        -0.00000000
   9        -2.04546203
  10        -0.20071709
  11        -0.00000000
  12         0.00000000
  13        -0.06189996
  14        -0.00000000
  15        -0.02496631
  16        -0.02638074
  17         0.94752735
  18         0.00000000
  19         0.00000000
  20         0.11657654
  21        -0.00000000
  22        -0.00000000
  23        -1.81959090
  24         0.12103167
  25        -0.00000000
  26        -0.00000000
  27        -0.12247195
  28         0.00000000
  29        -0.22259179
  30         0.22031095
  31        -0.03352990
  32         0.00000000
  33         0.05515961
  34        -0.65057494
  35         1.63377812
  36        -0.24973079
  37        -0.00000000
  38        -0.02401705
  39        -0.65057494
  40         1.63377812
  41         0.24973079
  42         0.00000000
  43        -0.02401705
  44        -0.22259179
  45         0.22031095
  46         0.03352990
  47         0.00000000
  48         0.05515961
Sym=    19a  
Ene=     3.9628
Spin= Alpha
Occup=    0.00000
   1        -0.13904630
   2        -0.57828415
   3         2.38336992
   4        -0.00000000
   5        -0.00000000
   6        -0.34880406
   7        -0.00000000
   8         0.00000000
   9         2.57743357
  10         0.35643878
  11         0.00000000
  12         0.00000000
  13        -0.04392114
  14         0.00000000
  15         0.32365407
  16         1.13929564
  17        -4.13539823
  18        -0.00000000
  19         0.00000000
  20        -0.03955331
  21         0.00000000
  22        -0.00000000
  23         1.24705010
  24        -0.14747926
  25         0.00000000
  26        -0.00000000
  27        -0.11121370
  28         0.00000000
  29         0.17654061
  30         0.08093823
  31        -0.05482128
  32        -0.00000000
  33        -0.02389667
  34        -0.44194349
  35         0.58531323
  36        -0.15685629
  37        -0.00000000
  38        -0.13891863
  39        -0.44194349
  40         0.58531323
  41         0.15685629
  42        -0.00000000
  43        -0.13891863
  44         0.17654061
  45         0.08093823
  46         0.05482128
  47         0.00000000
  48        -0.02389667
Sym=    20a  
Ene=     4.5191
Spin= Alpha
Occup=    0.00000
   1        -0.00000000
   2        -0.00000000
   3         0.00000000
   4        -0.59963180
   5        -0.00000000
   6         0.00000000
   7         2.65697514
   8         0.00000000
   9        -0.00000000
  10        -0.00000000
  11        -0.21334089
  12         0.00000000
  13         0.00000000
  14        -0.00000000
  15        -0.00000000
  16         0.00000000
  17         0.00000000
  18        -0.16128898
  19         0.00000000
  20         0.00000000
  21        -0.00117433
  22        -0.00000000
  23        -0.00000000
  24         0.00000000
  25         0.12710647
  26         0.00000000
  27         0.00000000
  28        -0.00000000
  29        -1.33273842
  30        -0.16346976
  31         0.26087569
  32        -0.00000000
  33        -0.02287362
  34         0.02019533
  35        -0.48437509
  36         0.20506487
  37         0.00000000
  38        -0.00872738
  39        -0.02019533
  40         0.48437509
  41         0.20506487
  42         0.00000000
  43         0.00872738
  44         1.33273842
  45         0.16346976
  46         0.26087569
  47        -0.00000000
  48         0.02287362
Sym=    21a  
Ene=     4.5352
Spin= Alpha
Occup=    0.00000
   1         0.00000000
   2         0.00000000
   3        -0.00000000
   4        -0.00000000
   5         1.18650893
   6        -0.00000000
   7         0.00000000
   8        -1.97119615
   9         0.00000000
  10         0.00000000
  11        -0.00000000
  12        -0.02579834
  13         0.00000000
  14         0.00000000
  15         0.00000000
  16         0.00000000
  17        -0.00000000
  18        -0.00000000
  19        -0.16175891
  20         0.00000000
  21         0.00000000
  22         0.69679819
  23        -0.00000000
  24        -0.00000000
  25         0.00000000
  26        -0.11372866
  27        -0.00000000
  28         0.00000000
  29        -0.00000000
  30        -0.00000000
  31         0.00000000
  32         0.23615258
  33        -0.00000000
  34         0.00000000
  35        -0.00000000
  36         0.00000000
  37        -0.05527102
  38        -0.00000000
  39         0.00000000
  40         0.00000000
  41         0.00000000
  42        -0.05527102
  43        -0.00000000
  44         0.00000000
  45         0.00000000
  46         0.00000000
  47         0.23615258
  48         0.00000000
Sym=    22a  
Ene=     4.6279
Spin= Alpha
Occup=    0.00000
   1         0.56740694
   2         2.45315931
   3        -5.47341884
   4        -0.00000000
   5        -0.00000000
   6        -0.35418028
   7         0.00000000
   8         0.00000000
   9         0.31181086
  10        -0.04976405
  11        -0.00000000
  12        -0.00000000
  13         0.01787660
  14        -0.00000000
  15        -0.04777999
  16        -0.09886089
  17         0.86034733
  18        -0.00000000
  19         0.00000000
  20         0.15353573
  21         0.00000000
  22        -0.00000000
  23        -1.16541217
  24         0.06177437
  25        -0.00000000
  26         0.00000000
  27        -0.00883075
  28         0.00000000
  29         1.04676311
  30         0.16810390
  31        -0.20056146
  32        -0.00000000
  33         0.14437923
  34         0.22494860
  35         0.09327634
  36        -0.06785810
  37         0.00000000
  38        -0.05152625
  39         0.22494860
  40         0.09327634
  41         0.06785810
  42        -0.00000000
  43        -0.05152625
  44         1.04676311
  45         0.16810390
  46         0.20056146
  47        -0.00000000
  48         0.14437923
Sym=    23a  
Ene=     4.6906
Spin= Alpha
Occup=    0.00000
   1        -0.00000000
   2        -0.00000000
   3         0.00000000
   4         0.00000000
   5         0.00000000
   6         0.00000000
   7        -0.00000000
   8        -0.00000000
   9        -0.00000000
  10        -0.00000000
  11         0.00000000
  12        -0.00000000
  13        -0.00000000
  14        -0.51179965
  15        -0.00000000
  16        -0.00000000
  17         0.00000000
  18         0.00000000
  19        -0.00000000
  20        -0.00000000
  21        -0.00000000
  22         0.00000000
  23         0.00000000
  24         0.00000000
  25        -0.00000000
  26        -0.00000000
  27         0.00000000
  28        -0.06175996
  29         0.00000000
  30         0.00000000
  31        -0.00000000
  32        -0.42040949
  33         0.00000000
  34        -0.00000000
  35         0.00000000
  36        -0.00000000
  37        -0.12195358
  38         0.00000000
  39        -0.00000000
  40        -0.00000000
  41        -0.00000000
  42         0.12195358
  43         0.00000000
  44        -0.00000000
  45         0.00000000
  46        -0.00000000
  47         0.42040949
  48        -0.00000000
Sym=    24a  
Ene=     4.8059
Spin= Alpha
Occup=    0.00000
   1         0.26416173
   2         1.15787386
   3        -0.81509715
   4        -0.00000000
   5         0.00000000
   6         0.24322758
   7         0.00000000
   8        -0.00000000
   9         0.72226231
  10         0.40211211
  11        -0.00000000
  12         0.00000000
  13        -0.07032290
  14        -0.00000000
  15        -0.07492963
  16        -0.29348861
  17         0.44454975
  18        -0.00000000
  19         0.00000000
  20        -0.50687846
  21        -0.00000000
  22        -0.00000000
  23         1.71410796
  24        -0.06300063
  25         0.00000000
  26        -0.00000000
  27         0.08294360
  28         0.00000000
  29         0.27033605
  30         0.23576314
  31        -0.01810775
  32        -0.00000000
  33         0.01411887
  34        -0.69046504
  35        -0.06994226
  36         0.15283226
  37        -0.00000000
  38         0.42272631
  39        -0.69046504
  40        -0.06994226
  41        -0.15283226
  42        -0.00000000
  43         0.42272631
  44         0.27033605
  45         0.23576314
  46         0.01810775
  47        -0.00000000
  48         0.01411887
Sym=    25a  
Ene=     4.8294
Spin= Alpha
Occup=    0.00000
   1        -0.00000000
   2        -0.00000000
   3         0.00000000
   4        -0.00000000
   5        -0.00000000
   6        -0.00000000
   7         0.00000000
   8        -0.00000000
   9        -0.00000000
  10        -0.00000000
  11         0.00000000
  12        -0.00000000
  13         0.00000000
  14        -0.03593036
  15         0.00000000
  16         0.00000000
  17        -0.00000000
  18        -0.00000000
  19        -0.00000000
  20         0.00000000
  21         0.00000000
  22         0.00000000
  23        -0.00000000
  24         0.00000000
  25         0.00000000
  26         0.00000000
  27        -0.00000000
  28         0.13447934
  29        -0.00000000
  30        -0.00000000
  31         0.00000000
  32        -0.14847869
  33        -0.00000000
  34         0.00000000
  35         0.00000000
  36        -0.00000000
  37         0.64581270
  38        -0.00000000
  39         0.00000000
  40         0.00000000
  41         0.00000000
  42        -0.64581270
  43        -0.00000000
  44        -0.00000000
  45        -0.00000000
  46        -0.00000000
  47         0.14847869
  48        -0.00000000
Sym=    26a  
Ene=     4.8790
Spin= Alpha
Occup=    0.00000
   1         0.00000000
   2         0.00000000
   3         0.00000000
   4         0.00000000
   5        -0.16221190
   6         0.00000000
   7         0.00000000
   8        -0.04034507
   9         0.00000000
  10         0.00000000
  11        -0.00000000
  12        -0.63551640
  13        -0.00000000
  14        -0.00000000
  15        -0.00000000
  16        -0.00000000
  17         0.00000000
  18        -0.00000000
  19        -0.09551510
  20        -0.00000000
  21         0.00000000
  22         0.18425760
  23         0.00000000
  24        -0.00000000
  25        -0.00000000
  26         0.12784648
  27         0.00000000
  28        -0.00000000
  29        -0.00000000
  30         0.00000000
  31        -0.00000000
  32         0.26581925
  33        -0.00000000
  34        -0.00000000
  35        -0.00000000
  36         0.00000000
  37         0.33786224
  38         0.00000000
  39        -0.00000000
  40        -0.00000000
  41        -0.00000000
  42         0.33786224
  43         0.00000000
  44         0.00000000
  45         0.00000000
  46        -0.00000000
  47         0.26581925
  48         0.00000000
Sym=    27a  
Ene=     4.9413
Spin= Alpha
Occup=    0.00000
   1         0.00000000
   2         0.00000000
   3        -0.00000000
   4         0.07542033
   5         0.00000000
   6        -0.00000000
   7        -0.55222899
   8         0.00000000
   9         0.00000000
  10         0.00000000
  11        -0.07470295
  12         0.00000000
  13        -0.00000000
  14        -0.00000000
  15        -0.00000000
  16        -0.00000000
  17         0.00000000
  18        -0.15449038
  19        -0.00000000
  20        -0.00000000
  21         0.76908837
  22         0.00000000
  23         0.00000000
  24        -0.00000000
  25         0.01634264
  26        -0.00000000
  27         0.00000000
  28        -0.00000000
  29         0.15418733
  30         0.11162173
  31        -0.22282798
  32        -0.00000000
  33        -0.28581852
  34        -0.47647043
  35         0.11613882
  36         0.44663176
  37        -0.00000000
  38        -0.35772160
  39         0.47647043
  40        -0.11613882
  41         0.44663176
  42        -0.00000000
  43         0.35772160
  44        -0.15418733
  45        -0.11162173
  46        -0.22282798
  47        -0.00000000
  48         0.28581852
Sym=    28a  
Ene=     5.1538
Spin= Alpha
Occup=    0.00000
   1        -0.00000000
   2        -0.00000000
   3         0.00000000
   4         0.26071184
   5         0.00000000
   6         0.00000000
   7        -1.89477715
   8        -0.00000000
   9         0.00000000
  10         0.00000000
  11         0.13082339
  12        -0.00000000
  13        -0.00000000
  14        -0.00000000
  15         0.00000000
  16         0.00000000
  17        -0.00000000
  18        -0.02587345
  19        -0.00000000
  20         0.00000000
  21         0.60207501
  22         0.00000000
  23         0.00000000
  24         0.00000000
  25        -0.02755123
  26         0.00000000
  27        -0.00000000
  28        -0.00000000
  29         0.88598924
  30         0.17337989
  31         0.37537880
  32        -0.00000000
  33         0.49434768
  34        -0.29858831
  35         0.19080333
  36         0.26412278
  37         0.00000000
  38        -0.23081680
  39         0.29858831
  40        -0.19080333
  41         0.26412278
  42         0.00000000
  43         0.23081680
  44        -0.88598924
  45        -0.17337989
  46         0.37537880
  47        -0.00000000
  48        -0.49434768
Sym=    29a  
Ene=     5.2187
Spin= Alpha
Occup=    0.00000
   1        -0.20492469
   2        -0.80303125
   3         1.63966951
   4         0.00000000
   5        -0.00000000
   6         0.08348876
   7        -0.00000000
   8         0.00000000
   9        -0.67924544
  10         0.21611144
  11         0.00000000
  12         0.00000000
  13         0.43734276
  14         0.00000000
  15         0.12833107
  16         0.56088767
  17        -0.85745979
  18         0.00000000
  19         0.00000000
  20        -0.14195928
  21        -0.00000000
  22        -0.00000000
  23         0.21301676
  24        -0.04245051
  25        -0.00000000
  26        -0.00000000
  27         0.08758982
  28         0.00000000
  29        -0.73271674
  30         0.15914776
  31         0.18367464
  32         0.00000000
  33         0.61386839
  34         0.14667626
  35        -0.00060870
  36        -0.13219468
  37         0.00000000
  38         0.07482536
  39         0.14667626
  40        -0.00060870
  41         0.13219468
  42         0.00000000
  43         0.07482536
  44        -0.73271674
  45         0.15914776
  46        -0.18367464
  47         0.00000000
  48         0.61386839
Sym=    30a  
Ene=     5.2515
Spin= Alpha
Occup=    0.00000
   1         0.00000000
   2         0.00000000
   3        -0.00000000
   4         0.00000000
   5         0.00088122
   6        -0.00000000
   7        -0.00000000
   8         0.24281663
   9         0.00000000
  10        -0.00000000
  11        -0.00000000
  12         0.66147078
  13        -0.00000000
  14         0.00000000
  15        -0.00000000
  16        -0.00000000
  17         0.00000000
  18         0.00000000
  19         0.72832807
  20         0.00000000
  21        -0.00000000
  22        -1.58421223
  23         0.00000000
  24         0.00000000
  25        -0.00000000
  26        -0.04318998
  27        -0.00000000
  28         0.00000000
  29         0.00000000
  30        -0.00000000
  31        -0.00000000
  32         0.34863209
  33        -0.00000000
  34        -0.00000000
  35         0.00000000
  36         0.00000000
  37         0.48329105
  38        -0.00000000
  39        -0.00000000
  40         0.00000000
  41        -0.00000000
  42         0.48329105
  43         0.00000000
  44         0.00000000
  45        -0.00000000
  46         0.00000000
  47         0.34863209
  48        -0.00000000
Sym=    31a  
Ene=     5.2594
Spin= Alpha
Occup=    0.00000
   1         0.00000000
   2         0.00000000
   3        -0.00000000
   4         0.00000000
   5        -0.43750466
   6        -0.00000000
   7        -0.00000000
   8         0.07494289
   9        -0.00000000
  10        -0.00000000
  11        -0.00000000
  12         0.00190437
  13         0.00000000
  14         0.00000000
  15        -0.00000000
  16        -0.00000000
  17         0.00000000
  18         0.00000000
  19         0.29173350
  20         0.00000000
  21        -0.00000000
  22         0.07475124
  23        -0.00000000
  24        -0.00000000
  25         0.00000000
  26         0.01576599
  27        -0.00000000
  28         0.00000000
  29         0.00000000
  30        -0.00000000
  31         0.00000000
  32         0.55060657
  33        -0.00000000
  34        -0.00000000
  35         0.00000000
  36         0.00000000
  37        -0.54681162
  38        -0.00000000
  39        -0.00000000
  40         0.00000000
  41        -0.00000000
  42        -0.54681162
  43         0.00000000
  44         0.00000000
  45         0.00000000
  46         0.00000000
  47         0.55060657
  48        -0.00000000
Sym=    32a  
Ene=     5.3767
Spin= Alpha
Occup=    0.00000
   1        -0.02760634
   2        -0.03903103
   3         0.47466115
   4         0.00000000
   5        -0.00000000
   6         0.08718949
   7        -0.00000000
   8         0.00000000
   9         0.52739728
  10         0.22238249
  11         0.00000000
  12         0.00000000
  13        -0.23519552
  14         0.00000000
  15         0.49492697
  16         2.01941122
  17        -4.14520986
  18        -0.00000000
  19         0.00000000
  20         0.12141815
  21         0.00000000
  22        -0.00000000
  23        -0.77815805
  24         0.12496332
  25         0.00000000
  26         0.00000000
  27         0.04671569
  28         0.00000000
  29         0.17515671
  30        -0.10890273
  31         0.05092700
  32         0.00000000
  33        -0.13221671
  34         1.24436690
  35        -0.25641398
  36        -0.55396991
  37        -0.00000000
  38         0.19463211
  39         1.24436690
  40        -0.25641398
  41         0.55396991
  42        -0.00000000
  43         0.19463211
  44         0.17515671
  45        -0.10890273
  46        -0.05092700
  47         0.00000000
  48        -0.13221671
Sym=    33a  
Ene=     5.4686
Spin= Alpha
Occup=    0.00000
   1         0.13493318
   2         0.41911030
   3        -2.41145137
   4         0.00000000
   5         0.00000000
   6        -0.43327046
   7        -0.00000000
   8        -0.00000000
   9        -0.70338632
  10        -0.44158556
  11         0.00000000
  12        -0.00000000
  13        -0.75737855
  14         0.00000000
  15        -0.04171723
  16        -0.03123167
  17         1.54825347
  18        -0.00000000
  19        -0.00000000
  20        -0.02750996
  21         0.00000000
  22         0.00000000
  23        -1.24282756
  24        -0.16522318
  25        -0.00000000
  26        -0.00000000
  27        -0.22465217
  28         0.00000000
  29         0.75261556
  30        -0.36963219
  31         0.19676424
  32        -0.00000000
  33         0.36890101
  34         0.10054027
  35         0.14180913
  36        -0.00184286
  37        -0.00000000
  38         0.30584675
  39         0.10054027
  40         0.14180913
  41         0.00184286
  42         0.00000000
  43         0.30584675
  44         0.75261556
  45        -0.36963219
  46        -0.19676424
  47         0.00000000
  48         0.36890101
Sym=    34a  
Ene=     5.4740
Spin= Alpha
Occup=    0.00000
   1        -0.00000000
   2        -0.00000000
   3         0.00000000
   4         0.12596383
   5        -0.00000000
   6         0.00000000
   7        -1.33284853
   8         0.00000000
   9         0.00000000
  10         0.00000000
  11         0.19044057
  12         0.00000000
  13         0.00000000
  14        -0.00000000
  15        -0.00000000
  16        -0.00000000
  17         0.00000000
  18        -0.33908456
  19         0.00000000
  20         0.00000000
  21         2.39053317
  22        -0.00000000
  23         0.00000000
  24         0.00000000
  25        -0.09160234
  26         0.00000000
  27         0.00000000
  28        -0.00000000
  29         0.56452202
  30         0.05169285
  31         0.17222816
  32         0.00000000
  33        -0.22921613
  34        -1.48918816
  35         0.37556621
  36         0.18138969
  37         0.00000000
  38         0.55655844
  39         1.48918816
  40        -0.37556621
  41         0.18138969
  42        -0.00000000
  43        -0.55655844
  44        -0.56452202
  45        -0.05169285
  46         0.17222816
  47         0.00000000
  48         0.22921613
Sym=    35a  
Ene=     5.5207
Spin= Alpha
Occup=    0.00000
   1        -0.00000000
   2         0.00000000
   3         0.00000000
   4         0.00000000
   5         0.00000000
   6         0.00000000
   7        -0.00000000
   8        -0.00000000
   9         0.00000000
  10         0.00000000
  11         0.00000000
  12        -0.00000000
  13         0.00000000
  14         1.03092784
  15        -0.00000000
  16        -0.00000000
  17         0.00000000
  18        -0.00000000
  19        -0.00000000
  20        -0.00000000
  21         0.00000000
  22         0.00000000
  23         0.00000000
  24         0.00000000
  25        -0.00000000
  26        -0.00000000
  27         0.00000000
  28         0.19905319
  29        -0.00000000
  30         0.00000000
  31        -0.00000000
  32        -0.70666026
  33        -0.00000000
  34        -0.00000000
  35         0.00000000
  36         0.00000000
  37        -0.14926895
  38        -0.00000000
  39        -0.00000000
  40        -0.00000000
  41        -0.00000000
  42         0.14926895
  43        -0.00000000
  44        -0.00000000
  45         0.00000000
  46         0.00000000
  47         0.70666026
  48        -0.00000000
Sym=    36a  
Ene=     5.6361
Spin= Alpha
Occup=    0.00000
   1        -0.32523576
   2        -1.42012274
   3         0.01235447
   4        -0.00000000
   5         0.00000000
   6        -0.41253873
   7         0.00000000
   8        -0.00000000
   9        -0.15378632
  10        -0.34146558
  11        -0.00000000
  12        -0.00000000
  13         0.46917200
  14         0.00000000
  15        -0.20932515
  16        -0.84497786
  17         1.78090248
  18         0.00000000
  19         0.00000000
  20         0.39045881
  21        -0.00000000
  22        -0.00000000
  23        -1.82006920
  24        -0.11729058
  25         0.00000000
  26        -0.00000000
  27        -0.10007998
  28        -0.00000000
  29        -0.19389350
  30         0.13825391
  31        -0.34085626
  32        -0.00000000
  33        -0.21890249
  34         0.18146158
  35        -0.00246720
  36        -0.19137263
  37         0.00000000
  38         0.57455285
  39         0.18146158
  40        -0.00246720
  41         0.19137263
  42         0.00000000
  43         0.57455285
  44        -0.19389350
  45         0.13825391
  46         0.34085626
  47        -0.00000000
  48        -0.21890249
Sym=    37a  
Ene=     5.7582
Spin= Alpha
Occup=    0.00000
   1        -0.00000000
   2        -0.00000000
   3         0.00000000
   4        -0.16755696
   5        -0.00000000
   6         0.00000000
   7        -1.18857476
   8         0.00000000
   9        -0.00000000
  10         0.00000000
  11        -0.99379889
  12         0.00000000
  13         0.00000000
  14         0.00000000
  15        -0.00000000
  16        -0.00000000
  17         0.00000000
  18        -0.50316939
  19        -0.00000000
  20         0.00000000
  21         2.66679142
  22         0.00000000
  23        -0.00000000
  24        -0.00000000
  25         0.15068082
  26        -0.00000000
  27        -0.00000000
  28         0.00000000
  29        -0.25726907
  30         0.79585870
  31         0.02459404
  32         0.00000000
  33         0.34425493
  34        -1.63254310
  35         0.47464630
  36        -0.05346028
  37         0.00000000
  38         0.17618650
  39         1.63254310
  40        -0.47464630
  41        -0.05346028
  42         0.00000000
  43        -0.17618650
  44         0.25726907
  45        -0.79585870
  46         0.02459404
  47         0.00000000
  48        -0.34425493
Sym=    38a  
Ene=     5.7650
Spin= Alpha
Occup=    0.00000
   1        -0.00000000
   2        -0.00000000
   3        -0.00000000
   4         0.00000000
   5        -0.51170352
   6         0.00000000
   7         0.00000000
   8         0.12234323
   9        -0.00000000
  10         0.00000000
  11         0.00000000
  12         0.56245914
  13        -0.00000000
  14         0.00000000
  15        -0.00000000
  16        -0.00000000
  17         0.00000000
  18         0.00000000
  19        -1.12722329
  20        -0.00000000
  21        -0.00000000
  22         1.22989613
  23         0.00000000
  24        -0.00000000
  25        -0.00000000
  26        -0.05307905
  27        -0.00000000
  28        -0.00000000
  29         0.00000000
  30        -0.00000000
  31        -0.00000000
  32         0.37887425
  33        -0.00000000
  34         0.00000000
  35        -0.00000000
  36         0.00000000
  37         0.12616777
  38        -0.00000000
  39        -0.00000000
  40         0.00000000
  41         0.00000000
  42         0.12616777
  43         0.00000000
  44        -0.00000000
  45         0.00000000
  46        -0.00000000
  47         0.37887425
  48         0.00000000
Sym=    39a  
Ene=     6.3131
Spin= Alpha
Occup=    0.00000
   1        -0.17909945
   2        -0.68563125
   3         1.49316690
   4        -0.00000000
   5        -0.00000000
   6         0.29957996
   7         0.00000000
   8         0.00000000
   9         0.30832332
  10         0.54190883
  11         0.00000000
  12         0.00000000
  13         0.04463014
  14        -0.00000000
  15         0.36633819
  16         1.57691284
  17        -2.56549272
  18         0.00000000
  19         0.00000000
  20         0.72610386
  21        -0.00000000
  22        -0.00000000
  23        -0.17668819
  24         0.19507774
  25         0.00000000
  26         0.00000000
  27        -0.59169862
  28         0.00000000
  29        -0.02634089
  30        -0.04109592
  31        -0.05982807
  32         0.00000000
  33         0.13209345
  34         0.54111962
  35        -0.29869948
  36         0.42870440
  37        -0.00000000
  38        -0.05057089
  39         0.54111962
  40        -0.29869948
  41        -0.42870440
  42         0.00000000
  43        -0.05057089
  44        -0.02634089
  45        -0.04109592
  46         0.05982807
  47        -0.00000000
  48         0.13209345
Sym=    40a  
Ene=     6.3871
Spin= Alpha
Occup=    0.00000
   1         0.00000000
   2         0.00000000
   3        -0.00000000
   4        -0.00000000
   5        -0.00000000
   6         0.00000000
   7         0.00000000
   8         0.00000000
   9         0.00000000
  10        -0.00000000
  11        -0.00000000
  12        -0.00000000
  13         0.00000000
  14        -0.38029789
  15         0.00000000
  16         0.00000000
  17        -0.00000000
  18         0.00000000
  19        -0.00000000
  20        -0.00000000
  21        -0.00000000
  22         0.00000000
  23         0.00000000
  24        -0.00000000
  25        -0.00000000
  26        -0.00000000
  27         0.00000000
  28         1.09021154
  29         0.00000000
  30         0.00000000
  31        -0.00000000
  32         0.18595182
  33        -0.00000000
  34        -0.00000000
  35         0.00000000
  36         0.00000000
  37        -0.40828962
  38         0.00000000
  39        -0.00000000
  40         0.00000000
  41         0.00000000
  42         0.40828962
  43        -0.00000000
  44        -0.00000000
  45         0.00000000
  46         0.00000000
  47        -0.18595182
  48        -0.00000000
Sym=    41a  
Ene=     6.4567
Spin= Alpha
Occup=    0.00000
   1         0.00000000
   2         0.00000000
   3        -0.00000000
   4         0.00000000
   5         0.31754185
   6        -0.00000000
   7        -0.00000000
   8        -0.08229179
   9        -0.00000000
  10         0.00000000
  11         0.00000000
  12         0.62257384
  13         0.00000000
  14        -0.00000000
  15        -0.00000000
  16        -0.00000000
  17         0.00000000
  18        -0.00000000
  19        -0.03584744
  20         0.00000000
  21         0.00000000
  22        -0.13710328
  23        -0.00000000
  24        -0.00000000
  25         0.00000000
  26         1.13668796
  27        -0.00000000
  28         0.00000000
  29        -0.00000000
  30         0.00000000
  31         0.00000000
  32         0.06059150
  33        -0.00000000
  34        -0.00000000
  35         0.00000000
  36        -0.00000000
  37        -0.17333328
  38        -0.00000000
  39         0.00000000
  40        -0.00000000
  41        -0.00000000
  42        -0.17333328
  43         0.00000000
  44        -0.00000000
  45         0.00000000
  46        -0.00000000
  47         0.06059150
  48         0.00000000
Sym=    42a  
Ene=     6.5032
Spin= Alpha
Occup=    0.00000
   1         0.00000000
   2         0.00000000
   3        -0.00000000
   4         0.92694481
   5        -0.00000000
   6        -0.00000000
   7        -0.78890602
   8        -0.00000000
   9        -0.00000000
  10         0.00000000
  11         0.12336214
  12        -0.00000000
  13        -0.00000000
  14        -0.00000000
  15        -0.00000000
  16        -0.00000000
  17         0.00000000
  18        -0.97400834
  19        -0.00000000
  20         0.00000000
  21         0.81775417
  22         0.00000000
  23        -0.00000000
  24        -0.00000000
  25         0.33170587
  26        -0.00000000
  27        -0.00000000
  28         0.00000000
  29        -0.08999810
  30         0.02924822
  31         0.38743185
  32        -0.00000000
  33        -0.36392448
  34        -0.14843175
  35         0.18565116
  36        -0.43173544
  37        -0.00000000
  38        -0.39466266
  39         0.14843175
  40        -0.18565116
  41        -0.43173544
  42         0.00000000
  43         0.39466266
  44         0.08999810
  45        -0.02924822
  46         0.38743185
  47        -0.00000000
  48         0.36392448
Sym=    43a  
Ene=     6.6038
Spin= Alpha
Occup=    0.00000
   1        -0.12549200
   2        -0.69914671
   3         0.64578620
   4         0.00000000
   5         0.00000000
   6         0.68308376
   7        -0.00000000
   8        -0.00000000
   9         0.17582307
  10        -0.91158505
  11         0.00000000
  12         0.00000000
  13        -0.10420727
  14         0.00000000
  15         0.50291464
  16         2.21691638
  17        -2.39283320
  18        -0.00000000
  19        -0.00000000
  20        -0.74510101
  21         0.00000000
  22         0.00000000
  23         1.34510889
  24         0.18452543
  25         0.00000000
  26         0.00000000
  27         0.09903918
  28        -0.00000000
  29         0.39869551
  30         0.02260373
  31        -0.66769914
  32        -0.00000000
  33        -0.07489033
  34        -0.15002855
  35        -0.00952166
  36         0.23878965
  37         0.00000000
  38        -0.05125118
  39        -0.15002855
  40        -0.00952166
  41        -0.23878965
  42        -0.00000000
  43        -0.05125118
  44         0.39869551
  45         0.02260373
  46         0.66769914
  47         0.00000000
  48        -0.07489033
Sym=    44a  
Ene=     6.9400
Spin= Alpha
Occup=    0.00000
   1        -0.39422755
   2        -1.86685939
   3        -0.09783662
   4        -0.00000000
   5         0.00000000
   6         0.89475324
   7         0.00000000
   8         0.00000000
   9        -0.57952269
  10         0.51807045
  11         0.00000000
  12         0.00000000
  13        -0.91975911
  14        -0.00000000
  15        -0.36840294
  16        -1.69891281
  17         1.34420585
  18         0.00000000
  19         0.00000000
  20        -0.10655077
  21        -0.00000000
  22        -0.00000000
  23        -0.50715938
  24         0.08192661
  25         0.00000000
  26         0.00000000
  27        -0.39406069
  28         0.00000000
  29         1.53799580
  30        -0.64962883
  31        -0.67719616
  32        -0.00000000
  33         0.64478089
  34         0.62759799
  35        -0.23930385
  36        -0.48817988
  37        -0.00000000
  38        -0.25346180
  39         0.62759799
  40        -0.23930385
  41         0.48817988
  42         0.00000000
  43        -0.25346180
  44         1.53799580
  45        -0.64962883
  46         0.67719616
  47        -0.00000000
  48         0.64478089
Sym=    45a  
Ene=     7.2767
Spin= Alpha
Occup=    0.00000
   1        -0.28555115
   2        -1.46223523
   3        -1.18730807
   4        -0.00000000
   5         0.00000000
   6        -1.19735416
   7         0.00000000
   8        -0.00000000
   9        -0.34388176
  10        -0.39906496
  11         0.00000000
  12        -0.00000000
  13        -0.35649370
  14        -0.00000000
  15        -0.38979008
  16        -1.32648711
  17         4.02796583
  18        -0.00000000
  19        -0.00000000
  20         0.17960604
  21         0.00000000
  22         0.00000000
  23        -1.50753848
  24         1.09807919
  25         0.00000000
  26        -0.00000000
  27         0.51913525
  28         0.00000000
  29         0.52741336
  30        -0.25485361
  31        -0.07017766
  32        -0.00000000
  33         0.19710636
  34        -0.78190256
  35         0.46060026
  36         0.31598017
  37         0.00000000
  38         0.16486982
  39        -0.78190256
  40         0.46060026
  41        -0.31598017
  42        -0.00000000
  43         0.16486982
  44         0.52741336
  45        -0.25485361
  46         0.07017766
  47        -0.00000000
  48         0.19710636
Sym=    46a  
Ene=     7.4185
Spin= Alpha
Occup=    0.00000
   1        -0.00000000
   2        -0.00000000
   3        -0.00000000
   4         1.88862041
   5         0.00000000
   6        -0.00000000
   7        -0.37207689
   8        -0.00000000
   9        -0.00000000
  10        -0.00000000
  11        -1.48872233
  12        -0.00000000
  13        -0.00000000
  14         0.00000000
  15        -0.00000000
  16        -0.00000000
  17         0.00000000
  18         0.70995056
  19        -0.00000000
  20         0.00000000
  21        -0.22622086
  22         0.00000000
  23        -0.00000000
  24         0.00000000
  25        -0.18304720
  26        -0.00000000
  27         0.00000000
  28        -0.00000000
  29        -1.94986170
  30         0.75694519
  31         0.95576844
  32        -0.00000000
  33        -0.38969541
  34        -0.15523490
  35        -0.02126497
  36         0.18714299
  37         0.00000000
  38         0.20537789
  39         0.15523490
  40         0.02126497
  41         0.18714299
  42         0.00000000
  43        -0.20537789
  44         1.94986170
  45        -0.75694519
  46         0.95576844
  47        -0.00000000
  48         0.38969541
Sym=    47a  
Ene=     7.6188
Spin= Alpha
Occup=    0.00000
   1        -0.08720323
   2        -0.43660825
   3        -0.50185306
   4        -0.00000000
   5        -0.00000000
   6         0.86204518
   7        -0.00000000
   8         0.00000000
   9        -0.30398611
  10         0.64142198
  11         0.00000000
  12        -0.00000000
  13        -0.67764083
  14        -0.00000000
  15        -0.04814723
  16         0.03178458
  17         1.06694213
  18         0.00000000
  19        -0.00000000
  20         0.98430925
  21         0.00000000
  22         0.00000000
  23        -0.26445163
  24        -0.68108433
  25         0.00000000
  26        -0.00000000
  27         1.01478620
  28        -0.00000000
  29         0.98796632
  30        -0.32965658
  31        -0.31913220
  32         0.00000000
  33         0.41203613
  34        -1.23848002
  35         0.51641620
  36         0.57000673
  37         0.00000000
  38         0.48204867
  39        -1.23848002
  40         0.51641620
  41        -0.57000673
  42        -0.00000000
  43         0.48204867
  44         0.98796632
  45        -0.32965658
  46         0.31913220
  47         0.00000000
  48         0.41203613
Sym=    48a  
Ene=     7.6472
Spin= Alpha
Occup=    0.00000
   1         0.00000000
   2         0.00000000
   3         0.00000000
   4        -0.03908961
   5        -0.00000000
   6        -0.00000000
   7        -0.46361377
   8         0.00000000
   9         0.00000000
  10        -0.00000000
  11         0.68578211
  12        -0.00000000
  13         0.00000000
  14        -0.00000000
  15         0.00000000
  16        -0.00000000
  17        -0.00000000
  18         0.88756111
  19         0.00000000
  20        -0.00000000
  21         0.35702827
  22        -0.00000000
  23         0.00000000
  24         0.00000000
  25         1.48443521
  26        -0.00000000
  27        -0.00000000
  28        -0.00000000
  29         0.64530510
  30        -0.16268254
  31        -0.20789960
  32        -0.00000000
  33        -0.04680934
  34        -1.56056491
  35         0.68330116
  36         0.77513754
  37         0.00000000
  38         0.30168632
  39         1.56056491
  40        -0.68330116
  41         0.77513754
  42         0.00000000
  43        -0.30168632
  44        -0.64530510
  45         0.16268254
  46        -0.20789960
  47        -0.00000000
  48         0.04680934
