 [Molden Format]
 [N_FREQ]
                   12
 [FREQ]
   1073.8038515627159     
   1144.9926921503220     
   1226.4145028400844     
   1338.0823119288088     
   1482.3198044134665     
   1575.9315362188149     
   1746.7869138888304     
   1928.8208418977329     
   3373.4458389021661     
   3491.5861274525214     
   3709.1658793468637     
   3752.6749392767942     
 [INT]
  0.22012297655698315     
   239.94989221988240     
   1.0514312857390743E-002
   16.367136414547563     
   99.662040481466036     
  0.46584395992960154     
  0.26271565411203002     
   32.003143454543057     
   1.7830695540763510     
   3.1412185048760883     
   101.22253294003856     
   192.93503436457556     
 [NATOM]
                    6
 [FR-COORD]
 C  0.13818393E-10 -0.82776828E-09  0.59371863E-01
 N  0.41943202E-10 -0.56087657E-09  0.24778996E+01
 H  0.17512678E+01 -0.41026746E-05 -0.95516252E+00
 H  0.16093451E+01  0.44628941E-05  0.34848763E+01
 H -0.16093451E+01 -0.44622712E-05  0.34848763E+01
 H -0.17512678E+01  0.41034404E-05 -0.95516252E+00
 [FR-NORM-COORD]
 vibration                     1
  -3.8923103152074472E-002   1.4365513493288525E-004   2.1699981946637104E-006
  -3.2853243579907779E-002   9.6172834829161182E-004  -1.5525017030377991E-005
  0.21631674164984332       -2.1621481840221331E-003  0.43305959989555753     
  0.24385308663797270       -5.3754542507856657E-003 -0.43150252544534695     
  0.24372168580854414       -5.3490786919532162E-003  0.43120527323264302     
  0.21603368056612848       -2.1863864858464171E-003 -0.43257247545509409     
 vibration                     2
  -3.6657579937945527E-004   2.4270585981023333E-002  -4.4306046430821487E-005
  -2.5213392802491937E-004 -0.12146190448284135        3.9708466078950153E-005
   1.8664293134755070E-003   7.7991600020606358E-002   3.7733173936968165E-003
   2.0634489666658609E-003  0.62150064958181062       -3.5584341234557479E-003
   2.0538002563954922E-003  0.61735499772318769        3.7042635957896860E-003
   1.8843138154367798E-003   8.1801288225223714E-002  -3.9433256978288174E-003
 vibration                     3
  -3.5538592008760605E-006  -1.2015078095022943E-003   1.0525535096419370E-006
   2.8656200134151078E-006   7.5926449591371585E-004  -1.5708440440084912E-007
   1.2740808339931767E-006 -0.47225664256803074        1.3825329949993487E-005
  -4.2759141809433687E-006  0.51616286100009046        1.8443153601264378E-006
  -7.3284783915480999E-007 -0.52105087343776979       -8.6392290379899964E-006
   6.2339456548403197E-006  0.48090131580270867       -1.7380404852712684E-005
 vibration                     4
  -1.6368142755834872E-004 -0.14364436054471574        5.4224779441939005E-005
  -1.5074391875772792E-005   3.5604257379843296E-002  -5.0267233645629833E-005
   5.8915603544350671E-004  0.60733692195369793        1.4300603485316063E-003
   5.1468758059341048E-004   1.6530298336308791E-004  -9.3814388313452537E-004
   5.1376253072535263E-004   8.1406156343530617E-003   7.4968117096952736E-004
   5.4076945033340227E-004  0.60000792855362861       -1.1888122443258543E-003
 vibration                     5
  0.12097070636844236       -7.8063234962690242E-005  -9.1262595075963679E-005
 -0.11002490124884449       -1.2319965285954877E-005   8.7810958257342780E-005
  -8.9389414173800016E-002   3.6654999556335238E-004 -0.39799379878270658     
  0.13355123461756740        1.8478905724022887E-004 -0.37516215493408506     
  0.13348203300811282        1.5993197806738534E-004  0.37536542189150973     
  -8.9296813788306520E-002   3.8939244712270010E-004  0.39765710369870638     
 vibration                     6
   6.5452278087590739E-005   5.0467435399930563E-005   8.5453567673112754E-002
  -3.0410927985441286E-005  -3.9754848896624360E-005 -0.11809303865500324     
  0.22562451920006504       -1.7117872917443651E-004  0.51264077794325269     
   3.2588308530918556E-002   1.4660189361596126E-004 -0.20139535512691817     
  -3.2774224422098160E-002   1.4318729329279334E-004 -0.20132122338432948     
 -0.22579539228557075       -1.6714976971801408E-004  0.51342085305851592     
 vibration                     7
  -2.1780157950333251E-005  -2.1960801681730220E-005 -0.16850699266886551     
   2.7670545919723355E-005   1.8868053907562573E-005   5.4527220200297218E-002
  0.28371198870584802        6.8190140865061568E-005  0.27673207281964129     
 -0.16884710106440151       -6.9459287327869383E-005  0.34777287659173661     
  0.16870079505469451       -7.3495141284473636E-005  0.34760266314404853     
 -0.28369081434381882        7.4088441261618458E-005  0.27665598435685501     
 vibration                     8
   1.7963401470866375E-005   9.2803841735869068E-006   9.8219194570960136E-002
  -2.8640739969497017E-005  -8.3730708636425696E-006 -0.13321926515076746     
 -0.12065391439425034       -2.9679046754117347E-005  -7.2578166578418951E-002
 -0.35301386320985650        3.1948449924389425E-005  0.41322695667994180     
  0.35319588069218211        3.2755838128539486E-005  0.41351951097829587     
  0.12065595424107613       -2.9186806375539765E-005  -7.2652291946094585E-002
 vibration                     9
   4.8387329082036045E-005   6.0144987356877208E-007  -6.8158303074860704E-002
  -3.5240501786380078E-006  -8.5667225154020566E-007   7.6962289870054369E-003
 -0.59198570444470400       -3.1116867679760568E-007  0.34338152561705598     
   9.2548596612767493E-003   4.1188928669589173E-006   9.1311992927931122E-003
  -9.1882646977026663E-003   3.4480568112025228E-006   9.0856237552849814E-003
  0.59139193423091607       -2.5142372809294981E-006  0.34301678801882068     
 vibration                    10
  -9.9119953518088763E-002  -4.1745985380546796E-006  -4.2356386552992651E-005
   1.8210105220620767E-004  -2.3905798522839307E-006   7.1397062025841841E-005
  0.57492707539911669        2.1978793998140380E-005 -0.32545470726905384     
   1.2895370092001741E-002   1.9537857582193203E-005   2.2055945199310884E-002
   1.4242703733707406E-002   1.8149135815185692E-005  -2.2803745120814015E-002
  0.57560898046068487        2.3255996018144674E-005  0.32571482164108839     
 vibration                    11
  -1.1324230183903015E-004  -3.6736873309419299E-006   6.9750541920632764E-003
  -1.2912861054306215E-004   3.4888718366070838E-006  -5.8239971292044654E-002
   6.3684816443415025E-003   1.0208709157833093E-005   1.5970869493385680E-003
  0.58557813930529634       -1.0866132228206441E-005  0.36177896062230530     
 -0.58368775926127403       -1.6618562915071831E-005  0.36052230509073968     
  -5.1163468566137052E-003   1.2542344335314313E-005   2.2574326273438953E-003
 vibration                    12
   2.2052759675060627E-003  -1.1285203124781125E-006  -9.4692970244821467E-006
  -8.0517988429884793E-002  -1.8526536571364265E-006   9.0182849418151279E-005
  -1.8784191092659795E-002   6.7278956462466527E-006   1.0916030960680003E-002
  0.56414609835556928        1.2948792800191224E-005  0.36164772533555378     
  0.56606282317426881        1.0733038849621533E-005 -0.36286848396229626     
  -1.8937439637111603E-002   8.7687895619051076E-006  -1.0835555134311621E-002
 [RMASS]
   1.0397363254935121     
   1.2569472574353682     
   1.0078485759027309     
   1.3318391609782385     
   1.4781231618959394     
   1.3646914301331927     
   1.5523060108937579     
   1.5193491049497365     
   1.0629210171945331     
   1.1298436940672236     
   1.0548874130076229     
   1.1006105360534628     
