6
ICOND 1
C 0.004091 0.011227 0.004513
N 0.013631 0.021515 1.325351
H 0.846378 -0.138820 -0.535957
H 0.787358 -0.072779 1.938039
H -0.946264 -0.188904 1.866220
H -0.925572 -0.032106 -0.466569
6
ICOND 2
C -0.008139 0.000267 0.031167
N 0.011763 -0.001634 1.317225
H 0.854266 -0.038417 -0.662743
H 0.710769 0.051688 1.930500
H -0.842722 -0.034857 1.825297
H -0.788844 0.041114 -0.495781
6
ICOND 3
C 0.002551 0.002962 0.000225
N -0.016428 -0.000030 1.330462
H 0.915653 0.038905 -0.462697
H 0.940273 -0.060957 1.874208
H -0.748470 0.053220 2.061649
H -0.909582 -0.066019 -0.691380
6
ICOND 4
C -0.003023 0.005213 0.027082
N -0.000567 -0.022500 1.301651
H 0.831599 0.052529 -0.393687
H 0.902306 0.069135 1.952625
H -0.790612 0.158409 1.845503
H -0.899417 -0.029510 -0.542129
6
ICOND 5
C -0.000210 -0.031947 -0.003798
N 0.018734 0.039964 1.336258
H 0.915570 0.010196 -0.537157
H 0.672317 -0.091151 1.957305
H -0.843066 -0.251273 1.769326
H -1.002610 0.157342 -0.440316
6
ICOND 6
C -0.024042 0.002382 0.026316
N 0.000714 0.007155 1.322230
H 1.010873 -0.036035 -0.450012
H 0.890722 -0.026634 1.840404
H -0.758364 -0.056711 1.764972
H -0.866886 -0.008395 -0.569875
6
ICOND 7
C 0.008167 -0.002344 0.007712
N 0.013198 -0.008797 1.312310
H 0.893047 0.115419 -0.368812
H 0.744459 -0.048359 1.831490
H -0.913312 0.149240 1.920174
H -1.004805 -0.066167 -0.438017
6
ICOND 8
C 0.016200 0.036492 0.043721
N -0.004399 -0.021061 1.288396
H 0.842606 -0.205294 -0.586319
H 0.810368 0.140606 1.899689
H -0.890992 -0.013629 2.012402
H -0.893747 -0.063558 -0.477410
6
ICOND 9
C 0.024767 -0.023924 -0.001069
N 0.006471 0.019304 1.354894
H 0.798146 0.104787 -0.695703
H 0.780670 -0.098700 1.896334
H -0.941737 -0.043601 1.837009
H -1.021891 0.054153 -0.579927
6
ICOND 10
C -0.026465 -0.009261 0.021035
N 0.000155 0.003145 1.310171
H 1.020834 0.073900 -0.444552
H 1.092951 -0.043814 1.979614
H -0.928355 0.035227 1.791908
H -0.872469 0.001263 -0.511041
6
ICOND 11
C 0.000879 -0.007446 0.021634
N -0.001103 -0.013389 1.319872
H 1.056464 0.103448 -0.627764
H 0.735767 0.029653 1.862027
H -0.810501 0.134448 1.763715
H -0.976874 0.007146 -0.323963
6
ICOND 12
C -0.008330 0.021333 0.056417
N 0.022725 -0.009307 1.257093
H 0.923192 -0.092936 -0.234620
H 0.735992 0.031436 1.886354
H -0.891569 0.010510 1.833789
H -0.984182 -0.073705 -0.353394
6
ICOND 13
C -0.006004 -0.002862 0.035872
N 0.009165 -0.020805 1.324497
H 0.956960 -0.042649 -0.550208
H 0.779381 0.212037 1.735541
H -0.889255 0.019265 1.725724
H -0.902941 0.134500 -0.470844
6
ICOND 14
C 0.000405 0.000119 0.019272
N -0.005458 -0.006704 1.310417
H 0.891500 0.056426 -0.455477
H 0.886635 -0.014657 1.839228
H -0.853294 0.086352 1.896609
H -0.853820 -0.036398 -0.446860
6
ICOND 15
C -0.008634 -0.003456 0.043015
N -0.000475 -0.005430 1.325093
H 0.898711 -0.043903 -0.560612
H 0.865055 0.108225 1.707707
H -0.853608 -0.040491 1.821585
H -0.800755 0.092761 -0.621789
6
ICOND 16
C 0.013293 -0.015693 0.035100
N -0.005883 -0.007144 1.304558
H 0.903249 0.114557 -0.467165
H 0.796670 0.025750 1.772154
H -0.809086 0.093698 1.974894
H -0.967361 0.052116 -0.553438
6
ICOND 17
C -0.010819 0.026276 0.023074
N -0.004214 -0.011453 1.318809
H 0.814955 -0.181315 -0.454988
H 0.871404 0.111384 1.811660
H -0.776992 -0.059835 1.913427
H -0.722000 -0.023972 -0.598469
6
ICOND 18
C 0.024631 0.015745 0.015677
N -0.025396 -0.001126 1.317842
H 0.900085 -0.104070 -0.482966
H 0.961926 0.021114 1.896378
H -0.739182 -0.051853 1.763290
H -1.063237 -0.037016 -0.403554
6
ICOND 19
C 0.016824 -0.016707 0.049704
N -0.000870 -0.009490 1.298886
H 0.904170 0.096104 -0.744829
H 0.849119 0.068896 1.997170
H -0.940948 0.078511 1.827243
H -1.000574 0.087269 -0.448209
6
ICOND 20
C 0.007770 0.051933 0.037704
N 0.005564 -0.017073 1.316924
H 0.825166 -0.147690 -0.598943
H 0.796659 -0.048520 1.892900
H -0.853838 0.090647 1.842058
H -0.937804 -0.275579 -0.612386
6
ICOND 21
C 0.004671 -0.024019 0.030486
N 0.002676 0.033727 1.304019
H 0.910337 0.008544 -0.341244
H 0.870428 -0.095567 1.789122
H -0.864011 -0.201419 1.968207
H -1.009559 0.105818 -0.627205
6
ICOND 22
C 0.002620 -0.003310 0.045021
N 0.005564 0.000177 1.297826
H 0.940663 0.023939 -0.383538
H 0.871440 -0.006258 1.798315
H -0.887828 0.013365 1.802883
H -1.032775 0.005907 -0.515802
6
ICOND 23
C 0.012014 0.012517 0.051973
N 0.004858 -0.004402 1.294520
H 0.834176 -0.045986 -0.521097
H 0.821405 0.001645 1.937885
H -0.844244 0.011591 1.798619
H -1.021874 -0.055126 -0.550389
6
ICOND 24
C 0.017909 0.009486 0.005219
N -0.017929 0.002826 1.332583
H 0.885676 0.032921 -0.624413
H 0.814052 -0.116165 1.853722
H -0.760175 0.059995 1.927869
H -0.903681 -0.128963 -0.464337
6
ICOND 25
C -0.010355 0.017523 0.011031
N 0.000289 -0.003884 1.344181
H 0.987223 -0.128076 -0.572342
H 0.868654 0.055477 1.790907
H -0.852670 -0.061420 1.819856
H -0.883934 -0.020653 -0.575920
6
ICOND 26
C -0.015402 -0.010220 0.057560
N 0.013117 0.026490 1.287146
H 0.879634 -0.035257 -0.518037
H 0.863640 -0.084360 1.997521
H -0.865991 -0.172420 1.837748
H -0.876141 0.045667 -0.616283
6
ICOND 27
C -0.041859 0.008013 0.037745
N 0.024390 -0.012648 1.304777
H 1.022814 0.009249 -0.463336
H 0.791566 0.028617 1.904217
H -0.867638 0.085469 1.816155
H -0.787215 -0.042996 -0.565128
6
ICOND 28
C 0.034976 -0.032040 0.028097
N -0.005881 0.020586 1.315922
H 0.904226 0.136149 -0.556201
H 0.827616 -0.090302 1.679047
H -1.013163 -0.043682 1.887586
H -1.053424 0.093307 -0.358496
6
ICOND 29
C 0.024839 -0.002100 0.011497
N -0.019899 0.010146 1.336657
H 0.878462 -0.131021 -0.685862
H 0.979030 0.084036 1.849180
H -0.923200 -0.187320 1.920078
H -0.953564 0.118344 -0.521899
6
ICOND 30
C 0.010655 -0.007953 0.030516
N -0.013876 -0.004777 1.315992
H 0.872026 0.011453 -0.630790
H 0.833792 0.071956 1.835755
H -0.794615 0.001000 1.923632
H -0.845280 0.076659 -0.506433
6
ICOND 31
C 0.024085 0.015485 0.028212
N -0.000884 -0.023633 1.310052
H 0.907003 -0.052240 -0.641419
H 0.820508 0.125849 1.930378
H -0.941096 0.085912 1.813518
H -1.060900 -0.015539 -0.370344
6
ICOND 32
C 0.017313 0.016887 0.014422
N -0.000138 -0.024577 1.325089
H 0.835911 0.006598 -0.679735
H 0.812147 0.059599 1.984640
H -0.892337 0.158493 1.860255
H -0.959944 -0.084282 -0.477775
6
ICOND 33
C -0.035988 -0.013340 0.031379
N 0.048796 0.007018 1.303935
H 1.007756 0.039111 -0.351818
H 0.692628 -0.007472 1.903656
H -0.994446 -0.031632 1.796971
H -0.955418 0.061313 -0.569406
6
ICOND 34
C -0.003623 -0.037423 0.028032
N 0.001965 0.016493 1.324532
H 0.830850 0.209806 -0.436791
H 0.906439 -0.107229 1.814902
H -0.831120 0.031856 1.770051
H -0.890339 0.081992 -0.615072
6
ICOND 35
C 0.006552 0.011359 0.039021
N 0.000560 -0.007457 1.324759
H 0.910471 0.004909 -0.686582
H 0.855141 -0.024730 1.898096
H -0.875131 0.073933 1.723160
H -0.976276 -0.085759 -0.535586
6
ICOND 36
C -0.009132 0.031294 0.075464
N 0.003182 0.005023 1.279748
H 0.905834 -0.071660 -0.586175
H 0.815332 -0.156601 1.935756
H -0.786417 0.017492 1.792281
H -0.870221 -0.231644 -0.551300
6
ICOND 37
C -0.001454 0.007524 0.067013
N 0.004368 -0.018339 1.283568
H 0.875160 0.015841 -0.469356
H 0.860068 0.064873 1.836057
H -0.867426 0.111673 1.774224
H -0.911176 -0.027166 -0.502818
6
ICOND 38
C -0.011211 -0.018974 0.041645
N 0.011195 0.013961 1.298009
H 0.962621 -0.112779 -0.296933
H 0.843086 0.144443 1.727640
H -0.878658 -0.242805 1.918949
H -0.949114 0.243086 -0.610147
6
ICOND 39
C -0.009884 -0.008193 0.030516
N 0.002780 0.014281 1.311268
H 1.004691 0.038451 -0.554890
H 0.887478 -0.090940 1.905318
H -0.885527 -0.040190 1.898266
H -0.927581 -0.008186 -0.560895
6
ICOND 40
C 0.013645 -0.006265 0.022753
N -0.005232 0.003385 1.307280
H 0.891135 -0.029390 -0.466496
H 0.959546 0.047827 1.957918
H -0.886214 -0.067150 1.838788
H -1.054248 0.076269 -0.494565
6
ICOND 41
C 0.000378 -0.012634 0.033682
N -0.009464 -0.001503 1.318107
H 0.953353 -0.038318 -0.549236
H 0.819359 0.132677 1.790329
H -0.745522 -0.082162 1.851206
H -0.900201 0.159110 -0.537216
6
ICOND 42
C -0.000255 0.007802 0.027806
N -0.010100 0.019328 1.327481
H 1.005943 -0.078887 -0.533415
H 0.955842 -0.100724 1.750484
H -0.868084 -0.128146 1.828228
H -0.950327 -0.053687 -0.550496
6
ICOND 43
C 0.027399 -0.015295 0.039085
N -0.009461 0.025087 1.306424
H 0.917856 -0.040896 -0.610878
H 0.847042 -0.036011 1.850472
H -0.887611 -0.191888 1.879100
H -1.072063 0.102349 -0.465619
6
ICOND 44
C 0.020632 -0.004180 0.039796
N -0.009095 0.006367 1.315184
H 0.933778 0.028715 -0.685744
H 0.801041 -0.049782 1.862508
H -0.831885 -0.007243 1.686721
H -1.022226 -0.010376 -0.340587
6
ICOND 45
C 0.015291 -0.018777 0.037894
N -0.011157 -0.022316 1.304835
H 0.887739 0.021186 -0.490695
H 0.970090 0.254476 1.771926
H -0.942030 0.036360 1.767128
H -0.942854 0.221626 -0.359023
6
ICOND 46
C -0.011810 -0.003540 0.055982
N -0.001192 -0.037732 1.282933
H 1.057273 0.128368 -0.432819
H 0.842680 0.150190 1.729351
H -0.864258 0.264799 1.934016
H -0.878520 0.023047 -0.452268
6
ICOND 47
C 0.012647 0.032939 0.041396
N -0.005263 -0.007244 1.293204
H 0.932998 -0.146046 -0.559565
H 0.833609 0.000815 1.796247
H -0.938625 -0.012610 1.962951
H -0.905435 -0.133710 -0.390389
6
ICOND 48
C -0.017645 -0.007397 0.030327
N -0.006896 0.020473 1.330295
H 0.876437 0.078167 -0.417399
H 0.923631 -0.183101 1.652208
H -0.780889 -0.016718 1.756221
H -0.713268 -0.074733 -0.565343
6
ICOND 49
C 0.013117 0.006174 0.061264
N -0.014276 -0.005603 1.288177
H 0.822937 0.102628 -0.600983
H 0.931486 -0.111236 1.813022
H -0.902921 0.154629 1.720420
H -0.809326 -0.141692 -0.289935
6
ICOND 50
C 0.014243 0.009198 0.062088
N -0.001807 -0.018068 1.306937
H 0.888768 0.101656 -0.697171
H 0.782442 -0.041077 1.836000
H -0.840361 0.210158 1.793649
H -0.975327 -0.129219 -0.560424
6
ICOND 51
C 0.014898 -0.003967 0.027278
N -0.010321 -0.018276 1.331338
H 0.858343 0.038282 -0.479447
H 0.946581 0.113068 1.683080
H -0.893194 0.094064 1.648783
H -0.945707 0.055746 -0.404917
6
ICOND 52
C -0.005553 0.002382 0.018073
N 0.012625 -0.007923 1.319488
H 0.818605 0.033243 -0.504069
H 0.876310 0.004823 1.998535
H -0.899739 0.073816 1.739279
H -0.904474 -0.030159 -0.512000
6
ICOND 53
C 0.023704 -0.010434 0.024737
N -0.011578 -0.000770 1.326948
H 0.784331 -0.039990 -0.665371
H 0.826665 0.115321 1.826923
H -0.850932 -0.078656 1.854980
H -0.881441 0.138267 -0.477788
6
ICOND 54
C -0.002934 -0.033692 0.021163
N 0.008054 0.002250 1.329845
H 0.993572 0.153152 -0.509856
H 0.845902 0.031625 1.704126
H -0.981911 0.035865 1.788343
H -0.934540 0.149256 -0.441563
6
ICOND 55
C 0.002630 0.012351 0.015054
N -0.006276 -0.005431 1.312099
H 0.971291 -0.067942 -0.479354
H 0.821868 0.033891 1.841057
H -0.808538 -0.009142 2.062557
H -0.928738 -0.028397 -0.563901
6
ICOND 56
C 0.020447 -0.006638 0.035596
N -0.024575 0.012016 1.307810
H 0.870533 0.027540 -0.460323
H 0.963426 -0.072912 1.674282
H -0.842864 -0.038122 1.980120
H -0.893104 -0.004431 -0.518726
6
ICOND 57
C 0.017389 0.021151 0.049312
N 0.000219 0.003789 1.299582
H 0.896387 -0.143774 -0.610196
H 0.832149 -0.004883 1.870924
H -0.922598 -0.093367 1.889489
H -1.016028 -0.062461 -0.523848
6
ICOND 58
C -0.021924 0.009687 -0.026054
N -0.000761 0.007420 1.347930
H 0.977027 -0.032329 -0.370654
H 0.932034 -0.078993 1.850151
H -0.817456 -0.027073 1.992322
H -0.819995 -0.080041 -0.619854
6
ICOND 59
C 0.011591 -0.006222 0.033384
N -0.018348 -0.025881 1.322634
H 0.943988 0.076564 -0.614384
H 0.859423 0.139643 1.701951
H -0.812424 0.155331 1.948234
H -0.874067 0.062148 -0.540068
6
ICOND 60
C 0.014694 0.001532 0.019712
N -0.013300 0.022269 1.318955
H 0.876142 -0.011746 -0.509793
H 0.966070 -0.154763 1.960862
H -0.791686 -0.088648 1.821482
H -1.040683 -0.072502 -0.562922
6
ICOND 61
C -0.007541 0.041471 0.029774
N 0.017263 -0.014968 1.310524
H 0.892260 -0.237750 -0.546814
H 0.824084 0.101084 1.933693
H -0.967674 -0.053115 1.777716
H -0.898740 -0.096048 -0.457619
6
ICOND 62
C 0.014429 -0.002448 0.011100
N -0.028586 -0.000891 1.314989
H 1.011405 0.028316 -0.396025
H 0.952940 -0.008931 1.792046
H -0.716163 0.025168 1.748334
H -1.022797 -0.003019 -0.277076
6
ICOND 63
C 0.014698 0.006059 0.055681
N -0.004901 0.012420 1.278369
H 0.941211 -0.128906 -0.554967
H 0.803575 0.013739 1.909006
H -0.846984 -0.163650 1.847656
H -1.004717 0.034108 -0.356426
6
ICOND 64
C -0.001526 -0.058624 0.027082
N -0.011500 0.026141 1.313655
H 0.979527 0.160207 -0.609549
H 0.986484 0.013182 1.873946
H -0.923468 -0.134527 1.907599
H -0.864583 0.295944 -0.476472
6
ICOND 65
C 0.016712 0.025592 0.037625
N 0.000696 -0.019129 1.293402
H 0.987623 -0.150969 -0.500471
H 0.734631 0.137105 1.875669
H -0.823868 -0.001227 1.986547
H -1.107043 -0.023846 -0.510357
6
ICOND 66
C 0.017033 0.012419 0.028758
N -0.018142 0.011288 1.325158
H 0.893383 -0.080949 -0.615897
H 0.923855 -0.070865 1.735653
H -0.877558 -0.084192 1.944649
H -0.890410 -0.068703 -0.548670
6
ICOND 67
C 0.000484 -0.005236 0.023560
N 0.013909 0.004084 1.320672
H 0.967385 0.031314 -0.527102
H 0.823808 -0.029717 1.771337
H -1.033636 0.000092 1.792264
H -0.956582 0.003920 -0.396542
6
ICOND 68
C 0.025172 0.001360 0.051896
N -0.033457 0.014285 1.313035
H 0.958428 0.050570 -0.491031
H 0.871867 -0.164906 1.575686
H -0.666253 0.007734 1.859658
H -0.998896 -0.108079 -0.535636
6
ICOND 69
C 0.006585 0.021125 0.062191
N -0.006562 -0.003536 1.299294
H 0.883791 -0.143649 -0.602426
H 0.990574 0.047056 1.872306
H -0.916424 -0.066537 1.773052
H -0.945178 -0.039262 -0.565912
6
ICOND 70
C -0.006921 -0.000474 0.047778
N -0.009460 0.012122 1.316293
H 0.984693 -0.001462 -0.649188
H 1.061343 -0.081292 1.827295
H -0.962631 -0.047646 1.840664
H -0.869549 -0.032382 -0.606320
6
ICOND 71
C 0.012908 0.007273 0.040487
N -0.018786 -0.018255 1.294899
H 0.984726 -0.026597 -0.497451
H 0.892127 0.112048 1.769966
H -0.822515 0.064275 1.835755
H -0.947007 0.017305 -0.311750
6
ICOND 72
C 0.039283 0.026026 0.053034
N -0.026637 -0.004198 1.299337
H 0.833180 -0.061835 -0.584948
H 1.043034 -0.068450 1.773092
H -0.944190 0.042741 1.837409
H -1.029658 -0.164016 -0.440097
6
ICOND 73
C -0.012676 0.006564 0.048510
N 0.003218 -0.014354 1.306906
H 0.928482 0.045687 -0.586207
H 0.817986 0.010261 1.892767
H -0.790031 0.126089 1.795791
H -0.850224 -0.060754 -0.568187
6
ICOND 74
C -0.032517 -0.002929 0.043406
N 0.027669 -0.000948 1.311289
H 0.927409 -0.061656 -0.463247
H 0.825550 0.092434 1.847337
H -0.943545 -0.074283 1.798529
H -0.806685 0.091550 -0.648587
6
ICOND 75
C 0.008155 0.013514 0.026403
N 0.008607 -0.002766 1.326865
H 0.853993 -0.111362 -0.537788
H 0.896119 0.054853 1.738693
H -1.055610 -0.061909 1.795183
H -0.911195 -0.004064 -0.476031
6
ICOND 76
C 0.039802 0.022681 0.020807
N -0.023637 0.008241 1.316239
H 0.813426 -0.123064 -0.611675
H 0.906002 -0.068701 1.827280
H -0.879642 -0.081546 1.835639
H -0.985281 -0.111260 -0.316916
6
ICOND 77
C 0.009611 -0.007672 -0.017559
N -0.003481 -0.006774 1.342734
H 0.979586 0.087691 -0.530247
H 0.800668 0.001358 1.786439
H -0.907642 0.092288 1.920787
H -0.938677 0.004130 -0.353960
6
ICOND 78
C 0.008275 0.018699 0.033825
N -0.000635 0.021608 1.306003
H 0.913257 -0.120624 -0.502861
H 0.887965 -0.140758 1.931223
H -0.858711 -0.142260 1.669504
H -1.032212 -0.119244 -0.376301
6
ICOND 79
C -0.023999 -0.004102 0.040295
N 0.021551 -0.002944 1.306663
H 0.980224 0.035455 -0.397330
H 0.927004 0.008357 1.868310
H -0.980323 0.034426 1.617498
H -0.940595 0.011498 -0.453122
6
ICOND 80
C 0.009372 0.012770 0.026128
N -0.014023 0.001284 1.304098
H 0.893353 0.080613 -0.479693
H 0.932473 -0.178018 1.816014
H -0.873830 0.129484 1.796381
H -0.868751 -0.201969 -0.293031
6
ICOND 81
C -0.000601 0.023984 0.009883
N 0.000598 -0.008222 1.328229
H 0.872130 -0.045802 -0.524518
H 0.814257 -0.044395 1.930930
H -0.774824 0.067474 1.895353
H -0.912719 -0.148605 -0.603954
6
ICOND 82
C 0.010643 0.000119 0.058041
N -0.002547 -0.007858 1.277543
H 0.896590 -0.075604 -0.519231
H 0.756399 0.137197 1.922277
H -0.767437 -0.053103 1.905185
H -0.976882 0.099275 -0.479574
6
ICOND 83
C 0.009967 0.020055 -0.002496
N 0.002525 -0.018847 1.339690
H 0.693221 -0.029515 -0.461372
H 0.824526 0.038153 1.839942
H -0.849307 0.109761 1.883349
H -0.822198 -0.095320 -0.575956
6
ICOND 84
C 0.013766 -0.029134 0.067326
N -0.015747 0.018428 1.289737
H 0.941070 -0.007786 -0.647973
H 0.831102 0.063137 1.846826
H -0.756560 -0.181850 1.920916
H -0.960727 0.217347 -0.571096
6
ICOND 85
C -0.008774 0.023988 -0.003778
N 0.004836 -0.000796 1.338611
H 1.061378 -0.150987 -0.462462
H 0.869835 0.017419 1.738199
H -0.957358 -0.074128 1.911771
H -0.936588 -0.066859 -0.471283
6
ICOND 86
C 0.013765 0.002920 -0.008715
N -0.014953 0.018374 1.346944
H 0.929654 -0.055420 -0.555914
H 0.956623 -0.088459 1.825233
H -0.877335 -0.116880 1.939461
H -0.965073 -0.029302 -0.549568
6
ICOND 87
C 0.002525 -0.010724 0.042993
N -0.002633 -0.006307 1.319275
H 0.838227 0.100804 -0.623973
H 0.733503 0.003186 1.838781
H -0.710312 0.093749 1.874209
H -0.854902 0.017581 -0.661033
6
ICOND 88
C 0.008241 0.011704 0.016903
N -0.012914 -0.014592 1.316935
H 0.814808 0.004699 -0.554656
H 0.834756 0.023869 1.927361
H -0.731944 0.101055 1.822255
H -0.836309 -0.066232 -0.423821
6
ICOND 89
C 0.003720 -0.010480 0.043996
N -0.012434 0.011491 1.304782
H 0.966419 0.002623 -0.539061
H 0.935301 -0.017646 1.815035
H -0.838749 -0.077293 1.781063
H -0.934512 0.057436 -0.439634
6
ICOND 90
C -0.008921 0.020859 0.038613
N 0.021894 -0.001949 1.295770
H 0.865394 -0.149415 -0.368440
H 0.712285 0.043775 1.859549
H -0.853403 -0.079582 1.878290
H -0.922263 -0.036055 -0.562686
6
ICOND 91
C -0.003430 0.004170 0.030485
N -0.004922 0.012354 1.304135
H 0.951453 -0.038091 -0.421308
H 0.858524 -0.072608 1.743080
H -0.842478 -0.071463 2.072216
H -0.858264 -0.039143 -0.606722
6
ICOND 92
C 0.017571 0.035349 0.055168
N -0.038729 -0.004140 1.292169
H 0.904185 -0.105028 -0.480635
H 0.969858 -0.081139 1.540140
H -0.798940 0.029440 2.037324
H -0.746211 -0.206646 -0.437190
6
ICOND 93
C 0.015565 0.013656 0.018998
N -0.000517 -0.013667 1.321723
H 0.912831 -0.018955 -0.563075
H 0.743569 0.030638 1.863868
H -0.817944 0.079031 1.651834
H -1.016604 -0.063426 -0.272939
6
ICOND 94
C 0.019704 -0.006209 0.038314
N 0.000607 0.010839 1.303999
H 0.760139 0.053806 -0.492095
H 0.785881 -0.095873 1.767652
H -0.901079 -0.003676 1.831917
H -0.887983 -0.030920 -0.411530
6
ICOND 95
C -0.013539 0.009153 0.032269
N -0.001055 0.007741 1.297129
H 0.964076 0.010293 -0.463192
H 0.893014 -0.124255 1.886142
H -0.854082 0.016188 1.812814
H -0.827145 -0.118769 -0.372383
6
ICOND 96
C -0.015542 0.004180 0.077808
N -0.001443 0.030692 1.264535
H 1.040438 -0.086679 -0.413457
H 0.825060 -0.149740 1.803717
H -0.763106 -0.191358 1.853780
H -0.897278 -0.048434 -0.470016
6
ICOND 97
C 0.023505 -0.037855 0.055783
N -0.002722 0.025694 1.286132
H 0.895790 0.103601 -0.562846
H 0.855458 -0.054108 1.973054
H -0.863238 -0.118936 1.776115
H -1.130063 0.163177 -0.450134
6
ICOND 98
C 0.020315 0.035182 0.011362
N -0.034605 -0.013050 1.317922
H 0.964476 -0.121278 -0.409104
H 1.002292 0.000745 1.666302
H -0.798916 0.043736 1.940352
H -0.928927 -0.160786 -0.374148
6
ICOND 99
C -0.019034 0.009267 0.065444
N 0.007556 0.010575 1.295649
H 0.918770 -0.087085 -0.354142
H 0.972848 -0.039095 1.748702
H -0.879292 -0.099730 1.891036
H -0.890685 -0.031365 -0.796663
6
ICOND 100
C -0.010497 0.000736 0.041023
N -0.003044 0.013306 1.294712
H 1.079170 -0.031622 -0.551785
H 0.777538 -0.064559 1.860609
H -0.786108 -0.080393 1.836306
H -0.903321 -0.017071 -0.352402
6
ICOND 101
C 0.003077 0.021750 0.015370
N 0.003002 -0.028634 1.329968
H 0.912454 -0.072232 -0.547505
H 0.884375 0.143208 1.811324
H -0.955553 0.105236 1.850814
H -0.919620 -0.037338 -0.506317
6
ICOND 102
C -0.019097 0.007940 0.044911
N 0.000514 -0.002871 1.297843
H 1.060353 -0.058770 -0.448771
H 0.916213 0.033813 1.939762
H -0.764266 -0.024571 1.797210
H -0.992056 -0.005117 -0.585281
6
ICOND 103
C -0.022603 0.007951 0.026079
N -0.012796 -0.009918 1.285286
H 1.140827 -0.045905 -0.337509
H 0.837785 0.069672 1.883760
H -0.642173 0.015241 1.891473
H -0.889505 0.004116 -0.336080
6
ICOND 104
C -0.008000 -0.015947 0.024155
N -0.004348 0.000127 1.319268
H 0.958711 0.196375 -0.458872
H 0.845563 -0.113197 1.729770
H -0.816532 0.155218 1.860453
H -0.832082 -0.050287 -0.478966
6
ICOND 105
C -0.020443 -0.009957 0.052762
N 0.025304 0.003036 1.303407
H 0.894764 -0.033977 -0.531431
H 0.846067 0.078770 1.975887
H -0.931125 -0.084301 1.677087
H -0.917872 0.115878 -0.589398
6
ICOND 106
C -0.000684 -0.006229 0.056755
N -0.000572 0.000546 1.289349
H 0.876274 -0.041411 -0.463597
H 0.949583 0.080802 1.898130
H -0.875115 -0.069717 1.643410
H -0.934647 0.096909 -0.398014
6
ICOND 107
C -0.010646 0.019009 0.011738
N 0.005220 -0.021311 1.326744
H 0.903430 -0.039216 -0.434193
H 0.863539 0.072820 1.865209
H -0.828040 0.104413 1.779591
H -0.884691 -0.068248 -0.514255
6
ICOND 108
C -0.009697 -0.032672 0.010119
N -0.014656 -0.002358 1.316289
H 1.051646 0.130830 -0.411397
H 0.987396 0.082085 1.743599
H -0.875174 0.032134 1.927914
H -0.844768 0.176732 -0.399215
6
ICOND 109
C -0.001623 0.001952 0.030599
N -0.007285 0.008276 1.294014
H 1.006281 -0.098358 -0.288199
H 0.930395 0.035976 1.744804
H -0.850372 -0.130197 1.826214
H -0.965756 0.054348 -0.356271
6
ICOND 110
C -0.030181 -0.028617 0.037326
N -0.003718 0.023306 1.316585
H 0.999524 0.105661 -0.420026
H 1.003202 -0.098167 1.836342
H -0.765814 -0.074353 1.745083
H -0.825897 0.083777 -0.628572
6
ICOND 111
C 0.025789 -0.014509 0.023651
N -0.034068 0.009346 1.305458
H 0.972412 0.033758 -0.593811
H 0.948186 -0.010704 1.901037
H -0.744099 -0.050225 1.940526
H -1.010206 0.070076 -0.397477
6
ICOND 112
C -0.016826 0.028057 -0.002688
N 0.002418 -0.022632 1.338945
H 0.897353 -0.028293 -0.490114
H 0.936030 0.012767 1.927309
H -0.851569 0.154043 1.780813
H -0.815066 -0.158121 -0.519417
6
ICOND 113
C -0.030538 0.006147 0.028790
N -0.011764 -0.002592 1.288878
H 1.045177 0.019635 -0.346197
H 0.904776 -0.042084 1.799742
H -0.730349 0.053210 2.089965
H -0.692546 -0.067936 -0.524070
6
ICOND 114
C 0.013115 -0.009422 0.041344
N -0.011524 -0.019371 1.292079
H 0.862869 0.078347 -0.520830
H 0.826208 0.111915 1.882033
H -0.777561 0.121823 1.918761
H -0.907554 0.069242 -0.454486
6
ICOND 115
C -0.012077 0.013815 0.026221
N 0.007087 0.011777 1.314737
H 0.897477 -0.017890 -0.536233
H 0.824956 -0.151826 1.889701
H -0.865093 -0.012281 1.787975
H -0.812000 -0.146127 -0.450704
6
ICOND 116
C -0.000521 -0.001885 0.002901
N 0.001496 -0.003814 1.333712
H 0.963235 0.042163 -0.558705
H 0.916175 -0.006868 1.989166
H -0.876108 0.052972 1.774323
H -1.017895 -0.012827 -0.500026
6
ICOND 117
C -0.007365 -0.000676 0.036880
N 0.016639 -0.002234 1.314689
H 0.817255 -0.085073 -0.469829
H 0.922295 0.112704 1.880876
H -0.985432 -0.086864 1.692277
H -0.897606 0.098321 -0.538833
6
ICOND 118
C -0.013324 -0.013547 0.075193
N 0.010392 -0.025757 1.285008
H 0.840058 0.004532 -0.490363
H 0.880797 0.263724 1.892635
H -0.851982 0.049844 1.650269
H -0.854614 0.201079 -0.531830
6
ICOND 119
C -0.005904 0.003774 0.022013
N -0.003453 0.008125 1.300910
H 0.867878 -0.027039 -0.495634
H 0.885113 -0.052148 1.924314
H -0.861035 -0.045407 1.947386
H -0.773676 -0.033235 -0.443101
6
ICOND 120
C 0.010233 -0.011414 0.048681
N -0.012178 0.000578 1.313611
H 0.919572 0.119636 -0.674671
H 0.932330 -0.061708 1.825257
H -0.881421 0.086549 1.896101
H -0.923117 -0.016606 -0.607728
6
ICOND 121
C -0.001573 -0.015437 0.084423
N -0.008836 0.017870 1.267676
H 0.888621 0.030332 -0.481341
H 0.934383 -0.061476 1.827791
H -0.817686 -0.088503 1.865582
H -0.863820 0.055167 -0.560412
6
ICOND 122
C 0.007143 0.030399 0.041811
N -0.013228 0.007111 1.300961
H 0.884808 -0.165784 -0.572644
H 0.867016 -0.063278 1.890369
H -0.767474 -0.095822 1.920050
H -0.885597 -0.135878 -0.541254
6
ICOND 123
C -0.003635 -0.005878 0.043044
N 0.011682 -0.014734 1.289042
H 0.875971 -0.077180 -0.525295
H 0.847444 0.225767 2.001825
H -0.928972 -0.051483 1.764974
H -0.913474 0.177602 -0.394057
6
ICOND 124
C 0.013475 0.009888 -0.003647
N -0.017083 0.006752 1.317968
H 0.920220 -0.153462 -0.545596
H 0.909611 0.056281 1.964139
H -0.826864 -0.155716 1.987005
H -0.926064 0.041354 -0.404063
6
ICOND 125
C 0.001636 0.018561 0.018162
N 0.000233 -0.004637 1.313572
H 0.906570 -0.042675 -0.513219
H 0.792818 -0.038723 1.840864
H -0.856573 0.038042 1.884874
H -0.865528 -0.113220 -0.409645
6
ICOND 126
C 0.016353 -0.019951 0.007599
N -0.019523 0.014722 1.316040
H 0.902298 0.088797 -0.596337
H 0.834158 -0.074090 1.888946
H -0.786238 -0.029790 2.033126
H -0.873673 0.048086 -0.431367
6
ICOND 127
C 0.004939 0.032724 0.034878
N 0.034855 -0.022826 1.320511
H 0.803148 -0.125933 -0.443748
H 0.669911 0.090710 1.829809
H -0.956821 0.065481 1.722712
H -1.059323 -0.102748 -0.601334
6
ICOND 128
C 0.010234 -0.001906 0.037620
N 0.002297 0.008738 1.299969
H 0.898672 0.012224 -0.505852
H 0.871384 -0.063108 1.937566
H -0.888734 -0.025587 1.764127
H -1.035097 -0.022256 -0.435642
6
ICOND 129
C 0.010541 0.017604 0.067959
N -0.010208 -0.030369 1.270225
H 0.954277 -0.019015 -0.422846
H 0.836527 0.123958 1.859527
H -0.731775 0.154412 1.848564
H -1.042694 -0.047000 -0.473006
6
ICOND 130
C 0.006188 0.008129 0.047583
N -0.002377 0.002104 1.304672
H 0.884823 0.068459 -0.452608
H 0.904135 -0.141093 1.743477
H -0.891093 0.096373 1.811345
H -0.938518 -0.149764 -0.525987
6
ICOND 131
C 0.015060 -0.003763 0.023498
N -0.021936 0.001614 1.318614
H 1.021950 0.047618 -0.536859
H 0.894229 -0.039322 1.769464
H -0.777939 0.032226 1.835198
H -1.012778 -0.018132 -0.398508
6
ICOND 132
C 0.000001 -0.025529 0.009732
N -0.004871 0.013571 1.318301
H 0.926779 0.115682 -0.535367
H 0.901603 -0.059726 1.936851
H -0.864363 -0.016617 1.891531
H -0.896351 0.076066 -0.455464
6
ICOND 133
C -0.014846 0.026188 0.052788
N 0.005623 -0.016840 1.303211
H 0.970201 -0.136305 -0.466712
H 0.965252 0.101140 1.772886
H -0.949669 0.008526 1.926705
H -0.887143 -0.051197 -0.698321
6
ICOND 134
C -0.012132 -0.010624 0.010857
N 0.015770 0.001841 1.315734
H 0.945785 0.021975 -0.342318
H 0.824262 0.030596 1.860060
H -0.892438 -0.021466 1.827090
H -0.952264 0.069819 -0.485013
6
ICOND 135
C -0.002599 0.010334 0.000950
N 0.006235 -0.005984 1.335309
H 1.021141 -0.065105 -0.662179
H 0.837809 0.047542 2.024929
H -0.898769 -0.011371 1.748948
H -1.015868 -0.010965 -0.405903
6
ICOND 136
C -0.034389 -0.005464 0.056864
N 0.020380 0.034944 1.294425
H 0.993323 -0.051970 -0.339741
H 0.863168 -0.156324 1.895816
H -0.791062 -0.204223 1.854419
H -0.939131 -0.007952 -0.802396
6
ICOND 137
C -0.008187 0.005447 0.063235
N -0.013669 0.016010 1.286545
H 0.941396 -0.038748 -0.419222
H 0.919179 -0.105918 1.755183
H -0.732114 -0.080899 1.943928
H -0.841052 -0.061739 -0.638157
6
ICOND 138
C -0.039272 0.016887 0.031237
N 0.006877 -0.006531 1.316707
H 1.025865 -0.064358 -0.268492
H 0.998672 0.008939 1.768995
H -0.810379 0.015284 1.725043
H -0.842105 -0.070188 -0.621913
6
ICOND 139
C -0.011096 0.031582 0.057082
N -0.014824 -0.000089 1.296133
H 1.068849 -0.177488 -0.464189
H 0.918488 -0.007043 1.747995
H -0.732827 -0.077926 1.804117
H -0.916413 -0.112349 -0.506156
6
ICOND 140
C 0.000022 -0.014988 0.060809
N 0.006305 0.001780 1.285827
H 0.941888 0.048107 -0.412649
H 0.910583 0.030336 1.780817
H -0.955722 -0.008685 1.801853
H -0.984621 0.083965 -0.489431
6
ICOND 141
C -0.012725 0.012758 0.039324
N 0.007746 0.002072 1.311862
H 0.886612 -0.053871 -0.356720
H 0.800873 -0.037180 1.773959
H -0.747512 -0.019787 1.757849
H -0.896088 -0.069853 -0.600419
6
ICOND 142
C 0.015935 0.003422 0.042496
N -0.010883 -0.002285 1.293856
H 0.830340 0.039156 -0.588250
H 0.838212 -0.048175 1.897707
H -0.831745 0.063413 1.873818
H -0.875333 -0.063389 -0.396189
6
ICOND 143
C -0.031449 0.024370 -0.003474
N 0.009434 -0.017359 1.333807
H 1.084672 -0.066061 -0.405976
H 0.868063 0.039938 1.788804
H -0.886693 0.080249 1.868851
H -0.822662 -0.103106 -0.472327
6
ICOND 144
C 0.017087 0.002655 0.070865
N -0.001350 -0.011138 1.275291
H 0.899236 -0.031877 -0.729124
H 0.758400 0.096728 2.012437
H -0.851825 0.015704 1.825643
H -0.990509 0.042581 -0.401702
6
ICOND 145
C 0.009189 -0.008895 0.024098
N -0.016273 -0.018768 1.329839
H 0.959903 0.031685 -0.500339
H 0.962900 0.155073 1.719797
H -0.838683 0.070756 1.748788
H -0.967434 0.109168 -0.462063
6
ICOND 146
C 0.003154 -0.015755 0.017582
N -0.004471 0.031632 1.309986
H 0.853020 0.050312 -0.399431
H 0.886730 -0.178721 1.911902
H -0.783490 -0.118245 1.867195
H -0.931685 -0.005263 -0.520060
6
ICOND 147
C -0.008375 -0.019056 0.054129
N 0.003745 -0.012806 1.322041
H 0.942728 0.156486 -0.678516
H 0.843107 0.041632 1.779017
H -0.883310 0.147796 1.757768
H -0.854848 0.058925 -0.601311
6
ICOND 148
C 0.011709 -0.007705 -0.003469
N 0.012417 0.011802 1.339936
H 0.880876 0.038538 -0.628619
H 0.833202 -0.076576 1.918925
H -1.047765 -0.029254 1.776959
H -0.978253 -0.004950 -0.373134
6
ICOND 149
C 0.025718 -0.029329 -0.025098
N -0.017185 0.025268 1.371435
H 0.840750 0.124508 -0.653046
H 0.900722 -0.128052 1.798530
H -0.870400 -0.063613 1.912424
H -0.938511 0.065291 -0.543894
6
ICOND 150
C 0.007744 0.013249 0.033223
N 0.006733 0.008568 1.296825
H 0.820181 -0.120015 -0.482444
H 0.772815 -0.014359 1.964643
H -0.827044 -0.113735 1.855765
H -0.951717 -0.028692 -0.481722
6
ICOND 151
C -0.001391 -0.009500 0.047654
N -0.006500 -0.005234 1.306546
H 0.918908 0.126600 -0.535012
H 0.884371 -0.040274 1.858225
H -0.771846 0.122347 1.877581
H -0.924551 -0.022842 -0.651442
6
ICOND 152
C 0.004990 0.024492 0.026232
N -0.007387 0.003932 1.328384
H 0.936842 -0.108724 -0.555254
H 0.894023 -0.065278 1.725526
H -0.886189 -0.043595 1.892459
H -0.901451 -0.128649 -0.561734
6
ICOND 153
C -0.018099 0.013449 0.027769
N -0.007540 -0.002696 1.297136
H 1.088256 -0.067055 -0.326095
H 0.851149 0.006552 1.801530
H -0.703301 -0.014185 1.932610
H -0.915845 -0.047998 -0.491186
6
ICOND 154
C 0.006520 -0.033575 -0.001874
N -0.003275 0.011505 1.338615
H 0.891115 0.118830 -0.663457
H 0.851088 0.002651 2.026045
H -0.828417 -0.034904 1.798459
H -0.945908 0.153341 -0.467556
6
ICOND 155
C 0.022553 -0.001106 0.017672
N -0.017279 0.013641 1.358083
H 0.843314 0.041463 -0.706756
H 0.968172 -0.134750 1.744819
H -0.886063 -0.008791 1.834394
H -0.953883 -0.074289 -0.682180
6
ICOND 156
C -0.018050 -0.018075 0.026638
N 0.021159 0.005770 1.330954
H 0.989043 0.153399 -0.451196
H 0.772913 -0.092879 1.744593
H -0.902465 0.080072 1.707751
H -0.938562 -0.005536 -0.540695
6
ICOND 157
C 0.027264 -0.010049 0.054235
N -0.012085 0.000797 1.301695
H 0.900962 0.170527 -0.615098
H 0.772699 -0.127317 1.728199
H -0.836057 0.146092 1.856923
H -0.994314 -0.080725 -0.431642
6
ICOND 158
C -0.012408 0.007783 0.023439
N -0.007123 -0.023168 1.301045
H 1.002930 0.014857 -0.380841
H 0.872554 0.098514 1.792146
H -0.794332 0.129207 1.918306
H -0.834450 -0.013349 -0.415503
6
ICOND 159
C 0.036600 -0.000958 -0.009645
N -0.018355 -0.023824 1.343977
H 0.818550 0.068514 -0.669772
H 0.839482 0.100352 1.855068
H -0.875044 0.158199 1.895422
H -0.963745 0.015355 -0.369199
6
ICOND 160
C -0.005166 -0.021027 0.020052
N 0.000743 0.027711 1.317629
H 0.963976 0.012932 -0.491288
H 0.827499 -0.076738 1.887646
H -0.795692 -0.163763 1.845006
H -0.944595 0.092905 -0.517351
6
ICOND 161
C 0.007893 0.010208 0.051238
N -0.006853 -0.003789 1.308876
H 0.953155 -0.053279 -0.595606
H 0.872259 0.019918 1.807667
H -0.837170 -0.006987 1.893019
H -0.987006 -0.028554 -0.630783
6
ICOND 162
C 0.014697 -0.021745 0.018143
N -0.009969 -0.008375 1.317823
H 1.018439 0.124974 -0.548337
H 0.798346 0.061616 1.749069
H -0.858584 0.087521 1.992106
H -0.994680 0.101169 -0.448799
6
ICOND 163
C 0.003206 0.006808 0.042357
N -0.001931 0.011170 1.306623
H 1.016939 0.003121 -0.507207
H 0.784039 -0.125838 1.680511
H -0.868907 -0.012690 1.916300
H -0.943421 -0.100857 -0.478250
6
ICOND 164
C -0.002903 0.007112 0.034150
N 0.015149 -0.008600 1.299566
H 0.992989 -0.065795 -0.417947
H 0.730668 0.087320 1.830263
H -0.877996 -0.014275 1.849753
H -1.021588 0.027568 -0.454939
6
ICOND 165
C -0.000353 0.013368 0.045700
N 0.002212 -0.019653 1.294655
H 0.763844 -0.021924 -0.446014
H 0.825657 0.078121 1.903872
H -0.778177 0.096646 1.907939
H -0.837859 -0.038948 -0.627955
6
ICOND 166
C 0.005559 0.005440 0.007012
N 0.004699 -0.015086 1.332006
H 0.942456 -0.009422 -0.521176
H 0.821280 0.082563 1.867770
H -0.885766 0.064706 1.734115
H -1.009445 0.006989 -0.401192
6
ICOND 167
C 0.020423 0.004527 0.023294
N -0.026741 0.013782 1.309510
H 0.856429 -0.013528 -0.457938
H 0.898272 -0.111723 1.751077
H -0.740382 -0.048656 2.056423
H -0.885937 -0.071484 -0.551350
6
ICOND 168
C -0.007503 0.045178 0.080136
N 0.023746 -0.017030 1.272357
H 0.827672 -0.232727 -0.607177
H 0.741705 0.086663 1.995094
H -0.933130 -0.026623 1.643228
H -0.876843 -0.128622 -0.393525
6
ICOND 169
C -0.012398 0.001707 -0.006960
N 0.014168 0.009799 1.324873
H 0.904583 -0.060899 -0.312505
H 0.855343 -0.014019 1.965384
H -0.837319 -0.095893 1.783874
H -0.971834 0.014339 -0.491771
6
ICOND 170
C 0.009072 -0.006404 0.033849
N 0.001607 -0.001069 1.331368
H 0.966047 0.080534 -0.589721
H 0.843863 -0.039344 1.755343
H -0.899562 0.068249 1.788791
H -1.040691 -0.018339 -0.585588
6
ICOND 171
C 0.020423 -0.001989 0.031779
N -0.020525 0.013414 1.324071
H 0.868010 -0.141893 -0.529973
H 0.880931 0.072000 1.666406
H -0.793240 -0.210698 1.989043
H -0.913691 0.117895 -0.630603
6
ICOND 172
C 0.010030 -0.000908 0.053798
N -0.003497 -0.013310 1.307007
H 0.909187 -0.025875 -0.484055
H 0.872325 0.128245 1.699572
H -0.877234 0.017214 1.702561
H -0.975110 0.076158 -0.448285
6
ICOND 173
C 0.001065 -0.008845 0.026241
N 0.017453 -0.014173 1.295163
H 0.769285 -0.015384 -0.544593
H 0.702182 0.173411 2.080622
H -0.856454 0.002917 1.858357
H -0.870182 0.141294 -0.431919
6
ICOND 174
C -0.020526 -0.011018 0.033384
N 0.035471 0.002830 1.296971
H 0.813247 -0.000695 -0.315727
H 0.763155 0.050761 1.915337
H -0.956159 -0.051190 1.771171
H -0.868694 0.092993 -0.518480
6
ICOND 175
C -0.008217 0.009023 0.008560
N 0.011459 -0.012138 1.324053
H 0.915847 -0.018983 -0.585690
H 0.752291 0.049291 1.971673
H -0.856630 0.056557 1.854942
H -0.872892 -0.025660 -0.469331
6
ICOND 176
C -0.016085 0.026053 0.013812
N -0.005308 0.023146 1.319080
H 1.000100 -0.084367 -0.445271
H 0.999202 -0.237860 1.900718
H -0.847968 -0.081679 1.840817
H -0.886051 -0.227892 -0.518112
6
ICOND 177
C -0.007915 0.004885 0.032192
N -0.017572 -0.001547 1.308966
H 1.010748 -0.026018 -0.523427
H 0.882549 0.008217 1.796862
H -0.729274 -0.004884 1.899827
H -0.825624 -0.013978 -0.473432
6
ICOND 178
C -0.014285 0.009890 0.031505
N 0.011578 -0.014679 1.299512
H 1.024185 0.076859 -0.453239
H 0.901035 -0.042505 2.003871
H -0.890908 0.173298 1.764453
H -1.025087 -0.121455 -0.475715
6
ICOND 179
C -0.004535 0.001040 0.040164
N -0.006685 -0.008266 1.316432
H 0.931837 -0.019393 -0.631657
H 0.782440 0.073064 1.816738
H -0.750990 0.012907 1.784579
H -0.816406 0.035889 -0.468479
6
ICOND 180
C 0.007904 -0.008724 0.037978
N 0.004348 0.012003 1.312698
H 0.895967 0.030309 -0.643252
H 0.809316 -0.062566 1.916012
H -0.894284 -0.042647 1.805946
H -0.965522 0.012004 -0.499627
6
ICOND 181
C 0.032229 0.007431 0.039631
N 0.001061 -0.009033 1.329027
H 0.818353 0.032841 -0.869378
H 0.784728 -0.018979 1.940762
H -0.964748 0.095806 1.749992
H -1.036812 -0.072641 -0.488852
6
ICOND 182
C -0.005954 0.009808 0.054119
N 0.014131 0.006377 1.299432
H 0.828316 -0.040729 -0.601522
H 0.847323 -0.063234 1.964814
H -0.931113 -0.031962 1.668814
H -0.869972 -0.069468 -0.460892
6
ICOND 183
C 0.000160 0.001696 0.027064
N 0.001870 0.001934 1.315703
H 0.969289 -0.009639 -0.612372
H 0.818930 -0.013999 1.865765
H -0.903462 -0.011391 1.843815
H -0.912647 -0.012036 -0.429923
6
ICOND 184
C 0.023200 -0.021334 0.065018
N -0.001691 0.017470 1.263028
H 0.929428 0.045202 -0.485003
H 0.748146 -0.037328 1.898600
H -0.840509 -0.092308 1.897050
H -1.089813 0.095727 -0.363390
6
ICOND 185
C 0.008624 -0.017631 0.020857
N -0.021010 0.024693 1.323559
H 0.927800 -0.011471 -0.623380
H 0.845347 -0.050387 1.782416
H -0.761405 -0.166926 1.955287
H -0.822507 0.095624 -0.482292
6
ICOND 186
C 0.024863 -0.002470 0.015515
N -0.021459 -0.007580 1.306171
H 1.068317 0.127893 -0.602404
H 0.828159 -0.069751 1.877793
H -0.812041 0.157909 2.054483
H -1.082309 -0.081316 -0.392642
6
ICOND 187
C 0.016439 0.007077 0.042457
N -0.021780 0.012775 1.283240
H 0.882640 -0.133583 -0.361546
H 0.824618 0.009835 1.827928
H -0.629845 -0.166339 2.028342
H -0.970523 0.028315 -0.559678
6
ICOND 188
C 0.000369 0.025932 0.013896
N 0.008750 0.004392 1.323134
H 0.869765 -0.203893 -0.472488
H 0.828815 0.025863 1.905294
H -0.868822 -0.143600 1.839318
H -0.955725 -0.048163 -0.551306
6
ICOND 189
C 0.000296 0.004720 0.012495
N -0.002073 -0.032785 1.334950
H 0.849975 0.017662 -0.420764
H 0.946471 0.183092 1.755461
H -0.881083 0.156286 1.944296
H -0.890089 0.042295 -0.705656
6
ICOND 190
C -0.016274 -0.012478 0.014438
N 0.022330 0.015991 1.332286
H 0.957595 0.132200 -0.394835
H 0.789900 -0.177831 1.773942
H -0.918457 0.039989 1.761725
H -0.945521 -0.067968 -0.553623
6
ICOND 191
C 0.004292 0.017728 0.049674
N -0.007779 -0.001850 1.311852
H 0.958344 -0.020486 -0.484504
H 0.912896 -0.077324 1.624732
H -0.903764 0.048963 1.772834
H -0.910503 -0.136540 -0.461494
6
ICOND 192
C -0.021180 -0.004658 0.066637
N 0.018497 0.026274 1.282761
H 0.921160 -0.054447 -0.564385
H 0.841455 -0.097311 1.971299
H -0.924596 -0.172280 1.809683
H -0.842841 0.014447 -0.562803
6
ICOND 193
C -0.013633 0.027032 -0.010016
N 0.015238 -0.002098 1.333732
H 0.939028 -0.080224 -0.401446
H 0.940615 -0.069713 1.948590
H -0.980006 0.018710 1.765252
H -0.949042 -0.161483 -0.454115
6
ICOND 194
C 0.015684 0.006028 0.046336
N -0.022976 -0.011543 1.275232
H 0.936528 -0.049658 -0.504853
H 0.808560 0.097506 1.794311
H -0.762846 0.010104 2.034561
H -0.849747 0.030661 -0.323897
6
ICOND 195
C 0.009449 -0.008963 0.060751
N -0.005716 0.007106 1.306383
H 0.885160 0.086636 -0.585242
H 0.834703 -0.087638 1.733639
H -0.838954 0.035686 1.703646
H -0.913990 -0.026694 -0.456378
6
ICOND 196
C 0.013921 0.002820 0.016009
N -0.008096 -0.001185 1.327830
H 0.854092 0.039085 -0.526229
H 0.827248 -0.052065 1.812844
H -0.799565 0.057127 1.848354
H -0.935037 -0.061258 -0.504552
6
ICOND 197
C -0.020102 -0.013230 0.043213
N 0.016924 -0.016754 1.308727
H 0.920330 0.118130 -0.544871
H 0.751626 0.074292 1.950137
H -0.787223 0.141691 1.869315
H -0.880537 0.056193 -0.702666
6
ICOND 198
C -0.008097 -0.002830 0.010242
N -0.003320 -0.012260 1.326604
H 0.917556 0.059964 -0.416434
H 0.785264 0.039616 1.782850
H -0.715220 0.099792 1.962830
H -0.845062 0.004664 -0.613138
6
ICOND 199
C -0.001141 0.003891 0.023019
N -0.001997 -0.005127 1.310119
H 1.006387 0.019468 -0.307327
H 0.985399 -0.009595 1.756299
H -0.919580 0.054091 1.752488
H -1.030874 -0.039056 -0.408430
6
ICOND 200
C -0.015174 -0.022261 -0.023468
N 0.003709 0.002549 1.349064
H 1.083857 0.132459 -0.427470
H 0.902848 -0.020655 1.880172
H -0.863291 0.053837 1.839071
H -0.994272 0.064004 -0.486350
6
ICOND 201
C 0.013979 -0.001446 -0.000465
N 0.002573 -0.019524 1.346421
H 0.888181 0.035909 -0.839540
H 0.712705 0.108466 2.048176
H -0.843451 0.105216 1.875484
H -0.959628 0.038896 -0.515861
6
ICOND 202
C -0.001116 -0.002645 -0.005300
N 0.004930 0.016676 1.339836
H 0.900746 -0.003840 -0.403193
H 0.817544 -0.097170 1.792518
H -0.837082 -0.074786 1.986603
H -0.936422 -0.024409 -0.658599
6
ICOND 203
C 0.004595 -0.033738 0.003053
N -0.023733 0.005112 1.346167
H 0.894018 0.131499 -0.502219
H 0.855987 0.035203 1.721251
H -0.643874 0.001671 1.904776
H -0.831081 0.162314 -0.593909
6
ICOND 204
C 0.008416 0.015969 -0.001716
N -0.014349 0.001989 1.345502
H 0.978408 -0.123394 -0.511553
H 0.903401 0.018643 1.796890
H -0.780071 -0.083455 1.860480
H -1.002572 -0.029569 -0.549893
6
ICOND 205
C 0.010169 0.013780 0.062603
N 0.004332 -0.019647 1.288901
H 0.822394 0.020722 -0.481763
H 0.875406 0.029049 1.804791
H -0.937087 0.144526 1.832225
H -0.941984 -0.085397 -0.538725
6
ICOND 206
C 0.024326 0.008435 0.029613
N -0.007847 0.003929 1.282823
H 0.949543 -0.103283 -0.403742
H 0.824416 0.030915 1.831976
H -0.895873 -0.096074 1.957902
H -1.058708 0.013415 -0.292365
6
ICOND 207
C -0.007836 0.017477 0.009684
N 0.009914 0.010899 1.316596
H 0.966323 -0.092418 -0.530869
H 0.747844 -0.087786 1.957507
H -0.837710 -0.076848 1.916620
H -0.920906 -0.102468 -0.481446
6
ICOND 208
C 0.005929 -0.000467 0.032951
N 0.003640 -0.021866 1.306183
H 0.887898 -0.048243 -0.596782
H 0.854025 0.210415 1.991083
H -0.891977 0.025769 1.801865
H -0.971108 0.121440 -0.466706
6
ICOND 209
C 0.024434 -0.007269 0.036662
N -0.024457 -0.007388 1.308667
H 0.888967 0.027520 -0.498301
H 0.908962 0.068626 1.674479
H -0.819905 0.030524 2.002656
H -0.929145 0.062533 -0.528071
6
ICOND 210
C -0.010850 0.002562 0.018993
N 0.006231 -0.009926 1.294715
H 1.004170 -0.046625 -0.314131
H 0.855049 0.104777 1.805998
H -0.915471 -0.005116 1.965572
H -0.901124 0.054363 -0.402445
6
ICOND 211
C -0.002757 -0.004254 0.067144
N -0.002343 0.017783 1.284645
H 0.954195 -0.013966 -0.389280
H 0.862550 -0.083772 1.755775
H -0.783704 -0.095705 1.825709
H -0.967668 -0.002999 -0.570623
6
ICOND 212
C -0.002227 -0.008314 0.037251
N -0.005353 -0.019627 1.310432
H 0.980310 0.168287 -0.476369
H 0.912052 0.008820 1.677701
H -0.925249 0.224661 1.948373
H -0.866218 -0.030062 -0.530483
6
ICOND 213
C -0.029684 0.002780 0.046090
N 0.019482 0.000475 1.311640
H 1.049120 -0.090226 -0.366170
H 0.795115 0.077138 1.679449
H -0.871214 -0.089808 1.723724
H -0.890265 0.063191 -0.539804
6
ICOND 214
C -0.023941 0.015454 -0.004089
N 0.019104 -0.012820 1.365097
H 0.884180 -0.113812 -0.464538
H 0.929347 0.116433 1.812261
H -0.934822 -0.020747 1.785266
H -0.859090 0.012252 -0.781065
6
ICOND 215
C 0.038517 -0.022470 0.026954
N -0.020976 -0.005975 1.309465
H 0.838331 0.147499 -0.599449
H 0.906948 0.024713 1.834149
H -0.896500 0.100616 1.916545
H -1.015935 0.077746 -0.395990
6
ICOND 216
C 0.002770 -0.007239 -0.007851
N 0.013444 0.010396 1.336721
H 0.836361 0.001595 -0.443307
H 0.824798 -0.029376 1.852852
H -0.965480 -0.062618 1.859057
H -0.915464 0.032143 -0.477629
6
ICOND 217
C -0.004065 -0.010414 0.004271
N -0.001027 0.010652 1.314842
H 0.919771 -0.064683 -0.536549
H 0.785234 0.061125 2.006245
H -0.770594 -0.147224 1.911758
H -0.871743 0.126781 -0.430828
6
ICOND 218
C -0.015916 0.011408 0.047800
N 0.018310 0.013253 1.320128
H 0.941712 -0.181037 -0.407439
H 0.880822 0.030552 1.669518
H -0.968252 -0.203972 1.694349
H -0.919177 0.034481 -0.597529
6
ICOND 219
C 0.024784 0.001698 0.020719
N 0.002659 0.002364 1.313761
H 0.856992 0.006580 -0.685252
H 0.801537 -0.034706 2.005303
H -0.953562 0.004695 1.852979
H -1.037013 -0.029628 -0.403224
6
ICOND 220
C 0.007431 -0.027423 0.023139
N -0.013368 0.014304 1.326543
H 0.901818 0.113895 -0.600039
H 0.908545 -0.050932 1.888545
H -0.779806 -0.028131 1.887823
H -0.933301 0.092942 -0.612927
6
ICOND 221
C 0.004535 0.000288 0.049872
N -0.003752 0.008015 1.293705
H 0.898986 0.037843 -0.504660
H 0.751526 -0.099811 1.797204
H -0.766133 0.012916 1.899995
H -0.886250 -0.065748 -0.491182
6
ICOND 222
C -0.008599 0.023192 0.038598
N 0.019062 -0.004062 1.290353
H 0.871034 -0.048198 -0.452067
H 0.810031 -0.066233 1.978926
H -0.927822 0.046777 1.851560
H -0.915700 -0.152049 -0.496256
6
ICOND 223
C -0.018645 -0.015600 0.033628
N 0.002655 0.011199 1.308399
H 1.129447 0.045267 -0.533412
H 0.945976 -0.029426 1.897974
H -0.910571 -0.048448 1.835868
H -0.979743 0.062749 -0.509820
6
ICOND 224
C -0.005532 0.009300 0.024317
N 0.018732 0.013541 1.300110
H 0.867771 0.005421 -0.499396
H 0.788380 -0.160985 2.014269
H -0.931561 -0.009788 1.964211
H -0.918997 -0.133523 -0.562444
6
ICOND 225
C -0.004656 0.005523 0.055629
N -0.009142 0.029156 1.315372
H 0.887637 -0.204684 -0.570283
H 0.890091 -0.018989 1.800668
H -0.729148 -0.309267 1.774733
H -0.866112 0.062071 -0.673359
6
ICOND 226
C 0.003034 -0.005767 0.032219
N -0.005199 -0.012300 1.300979
H 0.943741 0.025880 -0.482321
H 0.829179 0.095665 1.856970
H -0.800627 0.052164 2.016079
H -0.936181 0.065856 -0.580247
6
ICOND 227
C -0.010940 0.004080 0.020437
N 0.010444 -0.012994 1.313535
H 0.866461 0.010905 -0.332910
H 0.893320 0.054273 1.714192
H -0.975866 0.074229 1.880268
H -0.798761 -0.007435 -0.485248
6
ICOND 228
C -0.018298 0.012555 0.058446
N 0.014624 0.004709 1.308339
H 1.036853 -0.101566 -0.564586
H 0.812565 -0.002676 1.767323
H -0.919318 -0.082073 1.667561
H -0.915415 -0.028602 -0.474356
6
ICOND 229
C -0.002310 0.023084 0.063381
N -0.003820 -0.004714 1.292507
H 0.945386 -0.085303 -0.557873
H 0.810739 -0.020549 1.877336
H -0.736830 0.008386 1.700305
H -0.938725 -0.111893 -0.462606
6
ICOND 230
C -0.000028 0.040557 0.068724
N -0.015404 -0.029666 1.294542
H 0.870378 -0.113003 -0.485469
H 0.853354 0.075306 1.718337
H -0.682312 0.133062 1.883892
H -0.827062 -0.166078 -0.651502
6
ICOND 231
C 0.038385 -0.011752 0.024601
N -0.010200 -0.014895 1.322596
H 0.813878 -0.026510 -0.693908
H 0.841213 0.209122 1.803311
H -0.985873 -0.017125 1.830663
H -0.984541 0.181401 -0.339233
6
ICOND 232
C 0.009689 -0.028103 0.044628
N -0.014290 0.003259 1.325941
H 0.841909 0.114096 -0.670421
H 0.883518 0.031437 1.705324
H -0.852522 0.010008 1.733684
H -0.789722 0.133788 -0.452687
6
ICOND 233
C -0.015092 -0.014911 0.023177
N 0.004322 0.007218 1.304677
H 1.016371 0.071375 -0.494559
H 0.750712 -0.034009 1.876783
H -0.790884 -0.002969 2.050545
H -0.856551 0.042851 -0.566003
6
ICOND 234
C -0.018655 0.006093 0.060547
N 0.035393 -0.003021 1.288315
H 0.974202 -0.029005 -0.496347
H 0.705018 0.014227 1.894655
H -0.979894 0.001650 1.783155
H -0.968965 -0.017447 -0.532321
6
ICOND 235
C -0.000023 0.022562 0.011385
N -0.001559 0.004263 1.319698
H 1.005392 -0.141215 -0.463662
H 0.838162 -0.019997 1.797232
H -0.864444 -0.087184 2.069355
H -0.957166 -0.079474 -0.604468
6
ICOND 236
C 0.019916 0.012132 0.029921
N -0.019107 -0.030962 1.312242
H 0.852617 -0.043472 -0.595023
H 0.881692 0.189559 1.786453
H -0.843596 0.110058 1.934606
H -0.862365 0.029586 -0.444694
6
ICOND 237
C -0.024414 -0.016237 0.011999
N 0.015657 0.000886 1.324678
H 1.072844 -0.022249 -0.415288
H 0.806082 0.121180 1.773772
H -0.906347 -0.086518 1.882678
H -0.899427 0.168618 -0.519206
6
ICOND 238
C 0.013900 -0.013296 0.037375
N -0.002857 -0.020474 1.318219
H 0.908918 0.207794 -0.472282
H 0.863150 0.003506 1.666404
H -0.913476 0.252624 1.811801
H -0.984397 -0.021136 -0.496366
6
ICOND 239
C 0.009941 -0.020413 0.008485
N -0.023064 0.013436 1.337381
H 1.064853 0.030359 -0.702994
H 0.879733 0.001550 1.745875
H -0.856353 -0.090357 1.760275
H -0.886142 0.114818 -0.215867
6
ICOND 240
C 0.029861 -0.009938 0.024482
N -0.010586 -0.018541 1.316377
H 0.837055 0.114458 -0.598007
H 0.910676 0.070024 1.855494
H -0.943702 0.156205 1.949090
H -1.012490 0.035260 -0.517918
6
ICOND 241
C 0.020012 0.013099 -0.007224
N -0.010137 -0.017009 1.329116
H 0.809752 -0.063421 -0.607680
H 0.821790 0.106252 1.952251
H -0.847922 0.040844 1.899437
H -0.881059 -0.003314 -0.354830
6
ICOND 242
C 0.009521 -0.005275 0.061966
N 0.006411 0.025042 1.290089
H 0.846463 0.062185 -0.523560
H 0.656658 -0.211581 1.817103
H -0.760914 -0.043099 1.773604
H -0.944643 -0.092643 -0.459550
6
ICOND 243
C 0.015701 -0.014694 0.046830
N -0.026806 0.000845 1.301471
H 0.949816 0.121762 -0.586373
H 0.940857 -0.045059 1.740954
H -0.815038 0.075958 1.959172
H -0.890134 0.010553 -0.484082
6
ICOND 244
C -0.004317 0.025756 0.024832
N -0.011034 -0.013537 1.318846
H 1.063277 -0.127569 -0.481256
H 0.866442 0.070975 1.755970
H -0.771711 0.004383 1.886767
H -0.953288 -0.066373 -0.511299
6
ICOND 245
C -0.007482 0.007874 0.022197
N 0.017141 0.016220 1.316429
H 0.957810 -0.108798 -0.487122
H 0.907336 -0.046614 1.930016
H -1.009490 -0.149065 1.752709
H -1.004735 -0.014650 -0.480468
6
ICOND 246
C 0.009754 -0.016319 0.053996
N -0.000575 0.002377 1.288557
H 0.900585 0.116530 -0.573406
H 0.793232 -0.039888 1.843484
H -0.883262 0.058748 1.929735
H -0.918701 0.025888 -0.476025
6
ICOND 247
C 0.013066 -0.006370 0.038899
N -0.007890 -0.026818 1.307766
H 0.902530 0.099156 -0.548537
H 0.877477 0.122638 1.854193
H -0.839143 0.182803 1.826448
H -0.986817 0.043867 -0.495454
6
ICOND 248
C -0.019629 0.018366 0.043716
N 0.015520 0.007060 1.285667
H 0.915569 -0.143071 -0.376487
H 0.894433 -0.011122 1.950923
H -0.910458 -0.114694 1.755553
H -0.881460 -0.047893 -0.443648
6
ICOND 249
C -0.028277 0.001313 0.043575
N 0.006267 0.001078 1.309551
H 1.036806 0.027278 -0.477459
H 0.802770 -0.045671 1.845799
H -0.722437 0.030519 1.831126
H -0.867534 -0.042737 -0.643304
6
ICOND 250
C -0.024864 0.015130 0.056424
N 0.013800 0.011084 1.294948
H 0.864187 0.015900 -0.279495
H 0.837455 -0.192048 1.770925
H -0.771831 0.031808 1.696423
H -0.825504 -0.189815 -0.581780
6
ICOND 251
C -0.017986 -0.033075 0.020026
N 0.016681 -0.003181 1.332385
H 0.953145 0.156586 -0.483916
H 0.833621 0.062448 1.868543
H -0.869562 0.061708 1.735212
H -0.934813 0.157266 -0.600546
6
ICOND 252
C -0.024682 0.004031 0.041992
N 0.017555 -0.029323 1.299164
H 0.969951 0.006649 -0.334349
H 0.815730 0.174919 1.695094
H -0.932774 0.129136 1.806017
H -0.802933 0.048721 -0.447431
6
ICOND 253
C 0.010997 0.012009 0.077158
N -0.006156 0.000250 1.271296
H 0.967964 0.039482 -0.431919
H 0.928609 -0.121093 1.779747
H -0.891283 0.085733 1.718010
H -1.050698 -0.150583 -0.378008
6
ICOND 254
C -0.005368 0.016867 0.068203
N 0.014786 -0.012915 1.297040
H 0.914615 -0.185752 -0.519329
H 0.780142 0.186399 1.846091
H -0.843814 -0.093545 1.692064
H -0.992471 0.071506 -0.582066
6
ICOND 255
C -0.004308 -0.000869 0.040888
N -0.001516 0.014379 1.292863
H 0.889007 0.047483 -0.356967
H 0.805186 -0.148041 1.803659
H -0.744740 -0.004077 1.913212
H -0.877091 -0.084814 -0.539880
6
ICOND 256
C -0.000031 0.013396 0.004846
N 0.014162 -0.016587 1.327897
H 0.906541 -0.070265 -0.606437
H 0.738936 0.108821 1.968693
H -0.907778 0.032933 1.911097
H -0.934101 -0.000526 -0.510959
6
ICOND 257
C -0.012250 -0.006301 0.049093
N 0.008609 0.002776 1.288983
H 0.952462 0.046152 -0.621040
H 0.914532 -0.029826 2.071551
H -0.931931 0.017146 1.838144
H -0.908808 0.002986 -0.512409
6
ICOND 258
C 0.016375 -0.002571 0.042287
N -0.010393 0.003990 1.304258
H 0.834682 0.028405 -0.616572
H 0.812480 -0.042836 1.938822
H -0.746745 0.006964 1.902738
H -0.950989 -0.017358 -0.579942
6
ICOND 259
C 0.009196 -0.004662 0.011785
N -0.012584 0.028908 1.325937
H 0.854889 -0.001786 -0.522956
H 0.875282 -0.173258 1.885073
H -0.758180 -0.124619 1.889220
H -0.906637 -0.046483 -0.544329
6
ICOND 260
C 0.017907 -0.011526 0.056089
N -0.011988 0.023182 1.312079
H 1.018847 0.021016 -0.748616
H 0.860937 -0.113857 1.788075
H -0.900161 -0.103838 1.672944
H -1.026275 0.011810 -0.340366
6
ICOND 261
C -0.001905 0.011573 0.046490
N 0.001701 -0.012427 1.293914
H 1.013986 -0.062296 -0.473317
H 0.806587 0.082260 1.824396
H -0.835384 0.019759 1.783997
H -0.986134 -0.004859 -0.396364
6
ICOND 262
C -0.017871 0.014607 0.052108
N 0.018393 -0.026184 1.267414
H 0.985781 -0.020924 -0.406378
H 0.794731 0.115437 1.960603
H -0.917500 0.126124 1.936252
H -0.905787 -0.030744 -0.450448
6
ICOND 263
C -0.001358 0.009817 0.058764
N 0.011925 -0.013878 1.305330
H 0.889575 0.073217 -0.540479
H 0.778541 -0.043758 1.859863
H -0.827456 0.166139 1.694765
H -0.990190 -0.119670 -0.580199
6
ICOND 264
C 0.004889 0.009910 0.057257
N -0.009936 -0.025086 1.277019
H 0.907313 -0.043417 -0.481958
H 0.948627 0.161994 1.888156
H -0.862339 0.080547 2.069939
H -0.913760 0.031430 -0.630871
6
ICOND 265
C -0.023801 0.011959 0.019153
N 0.009237 0.000424 1.308423
H 1.049256 -0.159131 -0.441071
H 0.786828 0.094114 1.844656
H -0.837308 -0.131210 2.028107
H -0.843711 0.047933 -0.569075
6
ICOND 266
C 0.004595 0.010644 0.057077
N 0.007659 0.017229 1.306738
H 0.800835 0.016269 -0.675028
H 0.763403 -0.207474 1.966728
H -0.807406 -0.006584 1.717757
H -0.917962 -0.168341 -0.574975
6
ICOND 267
C 0.000461 -0.022166 0.027412
N -0.009565 0.043537 1.323984
H 0.935571 0.019042 -0.271801
H 0.990836 -0.188288 1.630732
H -0.818866 -0.219133 1.739981
H -0.980130 0.047388 -0.550843
6
ICOND 268
C 0.015815 -0.019886 0.043831
N -0.008190 0.013524 1.297809
H 0.923856 -0.007390 -0.600344
H 0.800398 0.038652 1.837519
H -0.848902 -0.129839 1.898695
H -0.949871 0.147446 -0.419612
6
ICOND 269
C 0.013415 -0.021769 0.051974
N 0.000724 0.030132 1.304923
H 0.944410 0.108121 -0.511400
H 0.810249 -0.192755 1.744942
H -0.872784 -0.071728 1.832382
H -1.051669 -0.003098 -0.545465
6
ICOND 270
C 0.008333 0.010126 0.068309
N 0.003153 -0.012169 1.274652
H 0.862602 -0.004881 -0.536093
H 0.776568 0.027161 1.883079
H -0.856710 0.076028 1.793576
H -0.925484 -0.049787 -0.394009
6
ICOND 271
C 0.000985 -0.007271 0.049095
N -0.014116 0.019205 1.310401
H 0.917608 -0.005531 -0.479105
H 0.948360 -0.083835 1.671524
H -0.831607 -0.102705 1.820890
H -0.849954 0.011808 -0.534680
6
ICOND 272
C -0.009904 -0.005619 0.051687
N 0.006715 0.019523 1.292153
H 0.889113 0.017601 -0.562478
H 0.876417 -0.121766 1.999511
H -0.864177 -0.072685 1.664582
H -0.876719 -0.027503 -0.400296
6
ICOND 273
C 0.019610 -0.006158 0.060901
N -0.005347 -0.000343 1.281127
H 0.900691 0.050213 -0.585415
H 0.797136 -0.013060 1.879540
H -0.852503 0.033495 1.951283
H -1.004520 0.007431 -0.500599
6
ICOND 274
C -0.002950 -0.035509 0.024404
N 0.010692 0.014697 1.317448
H 0.948406 0.171103 -0.387257
H 0.847939 -0.064553 1.697459
H -0.971925 0.003272 1.831004
H -0.937853 0.108774 -0.466504
6
ICOND 275
C 0.019536 -0.029533 0.006029
N -0.024993 0.014451 1.326534
H 0.953705 0.154054 -0.465822
H 0.895912 -0.082254 1.733799
H -0.767913 0.007359 1.854914
H -0.967049 0.071704 -0.355641
6
ICOND 276
C -0.011623 -0.009047 0.008329
N -0.002088 -0.028347 1.326375
H 0.992407 -0.059863 -0.438308
H 0.931393 0.323539 1.819509
H -0.865915 0.005613 1.926123
H -0.890478 0.232298 -0.565242
6
ICOND 277
C -0.001345 0.012442 0.050016
N 0.021454 -0.018044 1.282140
H 0.856142 -0.030798 -0.517242
H 0.772936 0.082259 1.963072
H -0.991287 0.077736 1.841634
H -0.919869 -0.026641 -0.427132
6
ICOND 278
C 0.007223 0.014764 0.035431
N -0.016472 -0.006091 1.309721
H 0.988174 -0.089353 -0.492232
H 0.887761 0.046517 1.759412
H -0.769811 -0.021248 1.964502
H -0.963256 -0.027079 -0.580911
6
ICOND 279
C -0.016410 0.015948 0.023899
N -0.001871 -0.010251 1.325709
H 0.931497 0.020135 -0.386172
H 0.896433 -0.050671 1.677744
H -0.819487 0.117412 1.847119
H -0.787058 -0.134328 -0.572752
6
ICOND 280
C -0.015525 0.029735 0.034185
N 0.003809 0.013727 1.318330
H 0.973878 -0.083908 -0.474244
H 0.899389 -0.195035 1.793313
H -0.858425 -0.033339 1.896750
H -0.882923 -0.232499 -0.669829
6
ICOND 281
C 0.033542 0.013859 0.066411
N -0.023822 0.005040 1.283950
H 0.795602 -0.091684 -0.596737
H 0.936328 -0.024064 1.830748
H -0.840601 -0.067785 1.795576
H -0.959715 -0.051507 -0.389618
6
ICOND 282
C 0.011674 -0.007456 0.062749
N -0.014639 0.003413 1.301759
H 1.007530 0.000204 -0.708573
H 0.889533 0.022998 1.767825
H -0.890098 -0.039384 1.743025
H -0.942569 0.057531 -0.366148
6
ICOND 283
C 0.006081 0.030691 0.066935
N -0.003127 -0.019283 1.291096
H 0.892028 -0.145005 -0.391246
H 0.921690 0.099287 1.671225
H -0.891683 0.024377 1.761743
H -0.950994 -0.076165 -0.507281
6
ICOND 284
C 0.019947 -0.003126 0.062057
N 0.007909 -0.003243 1.293242
H 0.939092 0.002743 -0.520297
H 0.723127 0.039873 1.739885
H -0.911121 0.003473 1.739025
H -1.098498 0.036194 -0.395899
6
ICOND 285
C 0.008007 -0.002523 0.053691
N -0.005934 -0.016197 1.299859
H 1.027073 0.105133 -0.674064
H 0.800766 0.016415 1.784365
H -0.892926 0.164460 1.904404
H -0.947803 -0.030914 -0.444332
6
ICOND 286
C 0.009866 0.002438 0.043104
N -0.000251 -0.007260 1.307796
H 0.743254 0.029181 -0.590857
H 0.911817 0.004185 1.890515
H -0.936713 0.067173 1.704575
H -0.832343 -0.028703 -0.418078
6
ICOND 287
C 0.018271 -0.015244 0.032323
N -0.018399 -0.015041 1.310717
H 0.861014 0.030729 -0.522471
H 0.899619 0.170073 1.799759
H -0.797629 0.032991 1.834699
H -0.924914 0.156702 -0.438049
6
ICOND 288
C 0.027155 -0.007019 0.033560
N -0.030382 0.027517 1.312077
H 0.982286 0.001940 -0.639778
H 0.919348 -0.152469 1.820669
H -0.772437 -0.124051 1.953715
H -1.030391 -0.024174 -0.494290
6
ICOND 289
C 0.006778 0.013622 0.018154
N -0.012822 0.016728 1.319288
H 0.861568 -0.089193 -0.581350
H 0.868846 -0.108094 1.892240
H -0.790648 -0.108682 1.862001
H -0.842321 -0.088653 -0.449339
6
ICOND 290
C -0.011741 -0.006581 -0.006009
N 0.008002 -0.011744 1.343194
H 1.002823 0.045277 -0.549763
H 0.781498 0.075792 1.895849
H -0.833082 0.068280 1.810791
H -0.922617 0.052181 -0.477773
6
ICOND 291
C -0.016710 -0.006200 0.042248
N 0.015363 0.028151 1.305530
H 0.919172 0.103148 -0.627631
H 0.767905 -0.272305 2.002885
H -0.843216 -0.013261 1.874263
H -0.858360 -0.134903 -0.621689
6
ICOND 292
C 0.004859 0.006243 0.046196
N -0.001041 -0.005927 1.301003
H 0.834961 -0.061898 -0.366068
H 0.846450 0.069666 1.689594
H -0.841862 -0.022970 1.855828
H -0.882942 0.023230 -0.535623
6
ICOND 293
C 0.028530 -0.010295 0.068842
N -0.031719 -0.016393 1.283702
H 0.898019 0.133108 -0.572055
H 0.921346 0.036781 1.818044
H -0.704307 0.167347 1.887382
H -1.014055 0.013123 -0.518902
6
ICOND 294
C -0.000834 0.008806 0.015369
N -0.005378 0.014602 1.326099
H 0.900358 -0.149460 -0.317758
H 0.919666 0.003177 1.683997
H -0.824060 -0.184008 1.927904
H -0.911308 0.022554 -0.632050
6
ICOND 295
C -0.015621 -0.019962 0.028570
N 0.001896 0.018605 1.299204
H 0.923431 0.078003 -0.422193
H 0.872887 -0.089794 1.943185
H -0.789695 -0.055777 1.837230
H -0.846970 0.046742 -0.479628
6
ICOND 296
C -0.015039 -0.000897 0.021072
N 0.019999 0.017585 1.316739
H 0.909498 0.020427 -0.539441
H 0.839233 -0.141136 2.007595
H -0.935935 -0.045347 1.806874
H -0.911599 -0.067599 -0.550793
6
ICOND 297
C -0.036857 -0.030463 0.025103
N 0.039738 0.030153 1.320383
H 0.984577 0.148145 -0.468053
H 0.819159 -0.181178 1.973165
H -1.001662 -0.059881 1.736332
H -0.915355 0.036678 -0.615835
6
ICOND 298
C -0.000837 -0.005861 0.068598
N -0.002829 0.014850 1.271487
H 0.931494 0.073578 -0.526076
H 0.840125 -0.148033 1.901574
H -0.822195 0.004437 1.885763
H -0.900142 -0.066536 -0.474168
6
ICOND 299
C 0.024053 0.000214 0.066557
N -0.002518 0.019989 1.261842
H 0.916044 -0.011258 -0.403753
H 0.856030 -0.130754 1.873635
H -0.898618 -0.084574 1.811852
H -1.124856 -0.053696 -0.336319
6
ICOND 300
C 0.005160 -0.002741 0.062644
N 0.001450 0.017612 1.281100
H 0.949863 -0.016568 -0.517568
H 0.926562 -0.089339 1.827019
H -0.999622 -0.092409 1.769869
H -0.958386 -0.013747 -0.354903
6
ICOND 301
C -0.015460 0.002559 0.000278
N 0.004882 -0.015624 1.322500
H 1.058129 -0.021205 -0.509348
H 0.825950 0.117516 1.997999
H -0.808783 0.043372 1.804841
H -0.959059 0.046931 -0.401713
6
ICOND 302
C 0.026166 -0.000477 0.042675
N -0.005610 0.032496 1.307425
H 0.837975 0.027229 -0.642784
H 0.826174 -0.256867 1.821064
H -0.930746 -0.090946 1.850974
H -0.967012 -0.125245 -0.432835
6
ICOND 303
C -0.002629 0.008202 0.053133
N 0.017127 -0.019440 1.300557
H 0.802303 -0.063474 -0.458442
H 0.778325 0.154670 1.795534
H -0.912805 0.031859 1.802353
H -0.874490 0.049384 -0.572121
6
ICOND 304
C 0.010737 -0.015579 0.055753
N -0.001527 0.022833 1.295740
H 0.950596 0.057268 -0.582349
H 0.829594 -0.125057 1.908012
H -0.830238 -0.077859 1.693157
H -1.056583 0.013895 -0.415753
6
ICOND 305
C -0.005710 -0.022835 0.018085
N -0.007341 0.001212 1.319922
H 1.045443 0.044657 -0.531700
H 0.924140 0.088015 1.805569
H -0.891551 -0.038907 1.942630
H -0.908043 0.161293 -0.500933
6
ICOND 306
C -0.014871 0.009586 0.014016
N 0.005587 -0.015456 1.333119
H 0.858370 -0.013835 -0.366017
H 0.943184 0.063626 1.810308
H -0.845189 0.076342 1.688339
H -0.856923 -0.025521 -0.551977
6
ICOND 307
C 0.015632 0.035557 0.039120
N -0.015120 -0.020835 1.324747
H 0.869307 -0.093653 -0.505259
H 0.998395 0.023461 1.813716
H -0.791700 0.103632 1.828328
H -1.052044 -0.167327 -0.738712
6
ICOND 308
C 0.004765 0.000656 0.066305
N -0.006862 0.007500 1.273489
H 0.879382 -0.003894 -0.509336
H 0.838745 -0.053082 1.877775
H -0.796504 -0.029277 1.911719
H -0.883015 -0.025770 -0.493583
6
ICOND 309
C 0.002825 0.030842 0.047541
N -0.012909 -0.036597 1.286178
H 0.805921 -0.105742 -0.340575
H 0.930968 0.178287 1.840475
H -0.734772 0.130968 1.830585
H -0.856391 -0.062258 -0.496787
6
ICOND 310
C -0.010247 0.018554 0.025280
N 0.018323 0.020821 1.330280
H 0.984474 -0.069759 -0.529047
H 0.780157 -0.189607 1.822764
H -0.908013 -0.084558 1.857124
H -0.989190 -0.166294 -0.664853
6
ICOND 311
C 0.014881 -0.020314 0.033552
N -0.006658 -0.003146 1.316149
H 0.869306 -0.021178 -0.598651
H 0.860400 0.174502 1.884466
H -0.839747 -0.085436 1.710084
H -0.974637 0.217695 -0.412060
6
ICOND 312
C 0.027291 0.009289 0.022968
N -0.030134 -0.028379 1.302774
H 0.945625 -0.103322 -0.407870
H 0.928544 0.254463 1.727540
H -0.772086 0.025143 1.980506
H -1.008342 0.107414 -0.404483
6
ICOND 313
C -0.005318 -0.028668 0.026804
N 0.005504 0.023306 1.312108
H 0.964365 0.059361 -0.509226
H 0.780464 -0.047459 1.824536
H -0.860521 -0.124927 1.824136
H -0.897464 0.130551 -0.419118
6
ICOND 314
C -0.002814 -0.004687 0.076215
N 0.000271 0.026849 1.270202
H 0.973606 -0.039187 -0.531778
H 0.799058 -0.117812 1.853128
H -0.821493 -0.157881 1.885779
H -0.921433 -0.002364 -0.492876
6
ICOND 315
C 0.008207 -0.003288 0.003492
N -0.010506 -0.009316 1.321257
H 0.935997 0.036591 -0.451283
H 0.853555 0.047103 1.867530
H -0.774827 0.061929 1.970340
H -0.966468 0.022967 -0.515808
6
ICOND 316
C -0.001112 -0.020151 0.076867
N -0.017193 -0.005803 1.294034
H 0.988567 0.038678 -0.549327
H 1.036894 0.127157 1.660215
H -0.905973 -0.009995 1.777951
H -0.867359 0.164715 -0.513477
6
ICOND 317
C 0.009953 0.008555 0.052725
N -0.004555 -0.012893 1.300578
H 0.841316 -0.016322 -0.471792
H 0.930184 0.054722 1.838693
H -0.848126 0.060510 1.724317
H -0.978595 -0.021642 -0.519316
6
ICOND 318
C -0.006824 0.014804 0.033418
N 0.023588 -0.007500 1.307138
H 0.890915 -0.144287 -0.415180
H 0.726091 0.116031 1.852519
H -0.898650 -0.075730 1.776972
H -0.964846 0.031934 -0.503676
6
ICOND 319
C -0.032675 -0.010138 0.017369
N 0.015181 0.008434 1.325098
H 1.108327 0.020378 -0.456839
H 0.906559 -0.017481 1.932721
H -0.866988 -0.045549 1.794997
H -0.969772 0.046172 -0.618708
6
ICOND 320
C -0.012811 -0.007512 0.062135
N 0.005297 0.016911 1.315038
H 0.906138 -0.036819 -0.733586
H 0.871263 -0.032002 1.920509
H -0.854992 -0.129238 1.701601
H -0.843480 0.052536 -0.629594
6
ICOND 321
C -0.009447 0.007633 0.020468
N -0.004244 -0.000009 1.338796
H 0.969429 -0.023268 -0.478191
H 1.043909 -0.023155 1.707101
H -0.955738 0.002479 1.829545
H -0.886156 -0.046826 -0.633509
6
ICOND 322
C -0.031356 -0.021609 0.014177
N 0.034054 0.008996 1.308474
H 1.003420 0.140539 -0.254971
H 0.884296 -0.079278 1.910744
H -1.013961 0.041427 1.813943
H -0.973568 0.029616 -0.548540
6
ICOND 323
C -0.008050 0.006659 0.030860
N 0.003153 -0.008906 1.320062
H 0.909223 -0.137966 -0.509800
H 1.001790 0.170904 1.809660
H -0.996731 -0.093338 1.871267
H -0.862244 0.104861 -0.609603
6
ICOND 324
C 0.023565 -0.026930 0.035744
N -0.005894 -0.021580 1.323915
H 0.871831 0.201818 -0.820255
H 0.816611 0.104537 1.919024
H -0.919863 0.200573 1.826819
H -0.967278 0.113565 -0.475767
6
ICOND 325
C -0.004951 -0.010072 0.032733
N -0.002787 0.009635 1.311693
H 1.010242 -0.017596 -0.535411
H 0.874778 0.014916 1.866243
H -0.830939 -0.091022 1.803498
H -0.956399 0.079757 -0.478824
6
ICOND 326
C -0.004635 -0.008121 0.011709
N 0.014665 0.007620 1.319454
H 0.900794 0.050470 -0.478096
H 0.864415 -0.057278 2.016371
H -0.906388 -0.002490 1.800287
H -1.007398 0.000122 -0.540577
6
ICOND 327
C 0.022673 -0.012361 0.012348
N -0.014273 -0.016238 1.325854
H 0.767131 0.015814 -0.598993
H 0.888492 0.176454 1.838941
H -0.877769 0.031624 2.041093
H -0.849507 0.148906 -0.579582
6
ICOND 328
C -0.020346 0.002842 -0.010235
N 0.006915 0.015800 1.347980
H 0.929359 -0.108544 -0.438942
H 0.844658 -0.011917 1.903918
H -0.760059 -0.165557 1.847723
H -0.867773 0.032645 -0.649780
6
ICOND 329
C -0.033198 0.010470 0.054994
N 0.006430 -0.012084 1.294350
H 1.008130 -0.062028 -0.429369
H 0.812845 0.086554 1.773127
H -0.766432 0.014780 1.868160
H -0.748593 0.003929 -0.580506
6
ICOND 330
C 0.007336 -0.009723 0.046876
N 0.000715 -0.005838 1.315373
H 0.871630 0.120319 -0.495659
H 0.898302 -0.027740 1.727054
H -0.916264 0.116910 1.698835
H -0.950950 -0.012609 -0.494263
6
ICOND 331
C 0.008742 -0.010016 0.023794
N -0.002258 0.004451 1.331276
H 0.935317 0.039042 -0.625683
H 0.876010 -0.010335 1.839933
H -0.903270 -0.010229 1.729078
H -0.980772 0.038945 -0.453491
6
ICOND 332
C -0.024085 0.037944 0.057366
N 0.013868 -0.018983 1.295883
H 0.998416 -0.096099 -0.438096
H 0.866293 -0.002178 1.875015
H -0.840120 0.102879 1.701970
H -0.930491 -0.192642 -0.557015
6
ICOND 333
C 0.027314 -0.005463 0.009271
N -0.007463 0.023228 1.319177
H 0.906922 -0.011868 -0.498379
H 0.768550 -0.116947 1.753209
H -0.882456 -0.117732 1.969791
H -1.014546 -0.011146 -0.393747
6
ICOND 334
C -0.001098 -0.008631 0.026101
N 0.000222 -0.018419 1.312723
H 0.892438 -0.064397 -0.546164
H 0.830119 0.255476 1.883188
H -0.847172 -0.034114 1.899883
H -0.865398 0.201724 -0.516751
6
ICOND 335
C -0.010947 -0.004389 0.008167
N 0.013650 -0.017170 1.332861
H 0.927356 0.070771 -0.414583
H 0.819089 0.072563 1.885091
H -0.827780 0.123841 1.726041
H -0.977978 0.023649 -0.542662
6
ICOND 336
C 0.012390 -0.016039 0.063322
N -0.023586 0.042419 1.284451
H 0.949603 0.076216 -0.548809
H 0.845261 -0.281539 1.691256
H -0.768116 -0.130541 1.981665
H -0.846563 -0.062545 -0.454320
6
ICOND 337
C 0.005081 -0.006192 0.023246
N -0.006771 -0.000062 1.317427
H 0.840237 0.063834 -0.419426
H 0.893218 -0.029657 1.753798
H -0.842026 0.047164 1.759390
H -0.857854 -0.006762 -0.404980
6
ICOND 338
C 0.010389 0.022567 0.055330
N -0.003826 0.001592 1.273847
H 0.933990 0.015793 -0.405224
H 0.832162 -0.171959 1.893589
H -0.797659 0.093455 1.776197
H -1.039037 -0.228111 -0.352280
6
ICOND 339
C 0.011060 0.011184 0.004210
N 0.002222 0.005091 1.347771
H 0.861024 -0.126307 -0.629781
H 0.784356 0.030257 1.858624
H -0.850969 -0.115378 1.908930
H -0.956974 0.007526 -0.643939
6
ICOND 340
C 0.000775 0.008078 0.058480
N -0.016567 0.011287 1.304051
H 0.931751 -0.062323 -0.477942
H 0.999259 -0.063528 1.687575
H -0.833504 -0.079712 1.813187
H -0.876544 -0.047451 -0.567719
6
ICOND 341
C -0.007754 -0.005255 0.028518
N 0.003142 0.013222 1.336585
H 0.948844 0.023101 -0.505619
H 0.991051 -0.085416 1.752061
H -0.952600 -0.042334 1.708948
H -0.938624 -0.016490 -0.595576
6
ICOND 342
C -0.018249 0.012663 0.020461
N -0.000120 -0.012554 1.318532
H 0.967605 -0.040223 -0.444645
H 0.831783 0.052212 1.811163
H -0.768770 0.048208 1.862693
H -0.811661 -0.036544 -0.522612
6
ICOND 343
C 0.021941 0.020265 0.021184
N 0.013333 0.029825 1.315173
H 0.724939 -0.178335 -0.416008
H 0.710844 -0.146138 1.837180
H -0.875947 -0.229416 1.815331
H -1.006342 -0.101806 -0.491843
6
ICOND 344
C -0.003038 0.011813 0.029679
N 0.005059 -0.002359 1.318529
H 0.867026 -0.046554 -0.509095
H 0.767439 -0.007740 1.886825
H -0.756562 0.000943 1.712103
H -0.912025 -0.054533 -0.492957
6
ICOND 345
C -0.002329 0.005786 0.020979
N 0.015992 0.014631 1.312210
H 0.950725 -0.057984 -0.530474
H 0.773684 -0.077367 1.994418
H -0.890038 -0.095554 1.807961
H -1.028837 -0.041271 -0.483640
6
ICOND 346
C 0.008851 0.021090 0.045428
N -0.007632 0.007086 1.300386
H 1.003187 -0.117128 -0.632739
H 0.885793 -0.056855 1.916569
H -0.869618 -0.076653 1.767967
H -1.018706 -0.098935 -0.390360
6
ICOND 347
C 0.000531 -0.027016 0.033797
N -0.020068 0.028354 1.328757
H 1.019268 0.052989 -0.591591
H 0.940681 -0.086799 1.649492
H -0.835398 -0.144309 1.821174
H -0.852042 0.105838 -0.473347
6
ICOND 348
C 0.022390 -0.018004 0.047395
N -0.019004 0.016436 1.294787
H 0.977165 0.071540 -0.670225
H 0.795378 -0.079838 1.920116
H -0.738546 -0.047753 1.882304
H -1.036535 0.042056 -0.416371
6
ICOND 349
C -0.014483 -0.003402 0.024875
N -0.001062 -0.020250 1.312080
H 0.900903 -0.010642 -0.496087
H 0.910249 0.176706 1.854107
H -0.867074 0.050098 1.956267
H -0.756872 0.105705 -0.570602
6
ICOND 350
C 0.009754 -0.000102 0.037227
N 0.010449 0.011479 1.312990
H 0.882020 -0.078086 -0.550176
H 0.717020 0.004279 1.865971
H -0.840084 -0.127319 1.770538
H -1.020286 0.042848 -0.502368
6
ICOND 351
C 0.005354 -0.040651 -0.008853
N -0.012316 0.009033 1.344148
H 0.908432 0.236751 -0.600179
H 0.873998 -0.063160 1.931714
H -0.774367 0.076714 1.817169
H -0.900692 0.108212 -0.448990
6
ICOND 352
C -0.011614 -0.011103 0.006869
N 0.003044 0.013493 1.331178
H 0.986705 0.022072 -0.515279
H 0.847289 -0.049037 1.880419
H -0.836919 -0.065716 1.775850
H -0.901082 0.037400 -0.448276
6
ICOND 353
C 0.006687 0.014593 0.027708
N -0.010905 -0.004297 1.322267
H 0.943378 -0.074797 -0.516830
H 0.901863 0.019054 1.741190
H -0.846058 -0.012592 1.868051
H -0.927288 -0.045716 -0.524001
6
ICOND 354
C -0.023463 0.013484 0.048292
N 0.012869 -0.026901 1.287177
H 0.959862 -0.053105 -0.321682
H 0.853456 0.162670 1.844434
H -0.833760 0.089642 1.893654
H -0.878996 0.014004 -0.605530
6
ICOND 355
C 0.022141 -0.014062 0.015673
N -0.014530 -0.013626 1.338383
H 0.884553 0.068309 -0.496929
H 0.947802 0.111636 1.754406
H -0.840605 0.073011 1.773942
H -1.053499 0.103804 -0.543634
6
ICOND 356
C -0.024742 -0.017805 -0.012475
N 0.011282 0.004721 1.367590
H 0.953411 0.028655 -0.582379
H 0.902740 0.048576 1.775070
H -0.968548 -0.050855 1.793809
H -0.749757 0.120027 -0.569379
6
ICOND 357
C 0.001269 -0.007490 0.029759
N -0.023499 -0.003185 1.320481
H 0.892562 0.069677 -0.508524
H 1.010758 -0.005629 1.799751
H -0.749374 0.060219 2.018667
H -0.842556 0.009164 -0.741093
6
ICOND 358
C -0.018471 -0.027134 0.014085
N 0.036983 0.009035 1.334598
H 0.861271 0.150175 -0.469584
H 0.712233 -0.054909 1.891412
H -0.953378 0.031671 1.696001
H -0.914058 0.070611 -0.558553
6
ICOND 359
C 0.024533 0.005501 0.003294
N -0.008897 0.016630 1.323953
H 0.871850 -0.074326 -0.521213
H 0.747123 -0.071939 1.852175
H -0.782934 -0.121683 1.973654
H -1.004522 -0.028612 -0.468934
6
ICOND 360
C -0.004291 -0.008821 0.085156
N -0.009372 0.017246 1.284190
H 0.897256 -0.007046 -0.503267
H 0.947796 -0.058448 1.749597
H -0.801944 -0.102825 1.819830
H -0.861795 0.033734 -0.652721
6
ICOND 361
C 0.004990 -0.019678 0.008444
N -0.018367 0.018704 1.316535
H 0.994279 0.197726 -0.508249
H 0.861750 -0.222579 1.811435
H -0.781829 0.075179 1.907882
H -0.878412 -0.075901 -0.333646
6
ICOND 362
C 0.012449 -0.002671 0.058040
N -0.004865 0.005744 1.317907
H 0.788699 -0.019496 -0.672281
H 0.835181 -0.002507 1.707808
H -0.891949 -0.051937 1.784682
H -0.812566 0.025927 -0.552369
6
ICOND 363
C 0.007794 -0.014373 0.065803
N 0.008800 0.009823 1.304063
H 0.856876 0.054307 -0.530749
H 0.952595 -0.037315 1.815213
H -0.997298 -0.029112 1.555281
H -1.027247 0.046769 -0.471992
6
ICOND 364
C -0.009806 -0.003447 0.030584
N 0.010668 -0.026017 1.304871
H 0.994655 -0.025426 -0.409362
H 0.884045 0.233940 1.889746
H -0.903308 0.054938 1.756224
H -1.006849 0.139069 -0.460738
6
ICOND 365
C -0.002229 -0.000098 0.020576
N -0.007377 -0.007088 1.306675
H 0.962284 -0.044621 -0.402502
H 0.941084 0.099405 1.920634
H -0.790972 -0.022992 1.895690
H -0.983357 0.067858 -0.543854
6
ICOND 366
C -0.004219 0.009585 0.027238
N 0.002463 -0.016174 1.309356
H 0.924377 0.038309 -0.562539
H 0.844166 0.011972 1.907145
H -0.887226 0.135705 1.820768
H -0.865306 -0.075397 -0.411979
6
ICOND 367
C 0.018445 0.018630 0.023076
N -0.022347 -0.030409 1.336166
H 0.984449 -0.094408 -0.709747
H 0.889168 0.199756 1.714629
H -0.860961 0.076245 1.847475
H -0.921781 0.019094 -0.421905
6
ICOND 368
C 0.014308 0.018823 0.022498
N -0.013860 0.003574 1.329983
H 0.909225 -0.053410 -0.645287
H 0.929655 -0.086894 1.854228
H -0.861940 -0.002716 1.832215
H -0.954725 -0.130767 -0.517914
6
ICOND 369
C 0.021697 -0.010741 0.034867
N -0.019096 0.002578 1.295785
H 0.958864 0.003437 -0.528610
H 0.693763 0.046287 1.845847
H -0.630828 -0.044762 1.916800
H -1.014820 0.087109 -0.382919
6
ICOND 370
C -0.007050 -0.003555 0.056341
N 0.008844 0.004582 1.295638
H 1.020700 -0.025469 -0.585289
H 0.847593 0.017854 1.844447
H -0.954011 -0.057404 1.864209
H -0.953218 0.043690 -0.525896
6
ICOND 371
C 0.001438 0.006339 0.070275
N -0.001540 0.009137 1.302455
H 0.955922 -0.115516 -0.627958
H 0.821186 0.020653 1.686016
H -0.890036 -0.136060 1.860451
H -0.882794 0.028497 -0.581669
6
ICOND 372
C -0.011246 0.008625 0.057999
N 0.004233 0.013346 1.299991
H 0.891500 -0.092593 -0.464864
H 0.895659 -0.048652 1.833998
H -0.824596 -0.118192 1.795484
H -0.887478 -0.028689 -0.647365
6
ICOND 373
C 0.030112 -0.012929 0.044204
N -0.029803 0.022205 1.315344
H 0.900229 0.046571 -0.673365
H 0.896500 -0.125815 1.750523
H -0.777493 -0.077558 1.892975
H -0.963681 0.002224 -0.501947
6
ICOND 374
C 0.004373 0.006621 0.044102
N 0.015005 -0.009319 1.307709
H 0.889590 -0.045994 -0.619516
H 0.759028 0.073986 1.981020
H -0.878790 0.008117 1.829043
H -1.030378 0.014537 -0.615076
6
ICOND 375
C 0.001065 -0.007974 0.024748
N 0.009140 0.024099 1.313795
H 1.040677 -0.050984 -0.410275
H 0.874553 -0.064588 1.777378
H -0.968819 -0.172621 1.832556
H -1.086092 0.048294 -0.478294
6
ICOND 376
C 0.019686 0.023034 0.010830
N -0.006762 -0.017315 1.318145
H 0.936469 0.017216 -0.511558
H 0.731391 -0.042498 1.851460
H -0.772114 0.165851 1.792429
H -1.036198 -0.174248 -0.305685
6
ICOND 377
C -0.003868 0.000281 0.043181
N 0.019498 0.007651 1.296775
H 0.804386 -0.090324 -0.451471
H 0.837019 0.042290 1.929265
H -0.954818 -0.125246 1.787634
H -0.911441 0.063635 -0.527055
6
ICOND 378
C -0.014699 0.004436 0.024352
N 0.027754 0.028738 1.290369
H 0.997135 -0.156469 -0.367229
H 0.692067 -0.061580 1.989605
H -0.874678 -0.259225 1.969780
H -1.025135 0.025160 -0.540594
6
ICOND 379
C -0.021628 -0.005340 0.027256
N 0.010623 0.001773 1.289534
H 0.964176 -0.025090 -0.382875
H 0.807507 0.048690 1.960523
H -0.816427 -0.053213 1.847350
H -0.845334 0.068554 -0.396412
6
ICOND 380
C -0.014699 -0.016445 0.023005
N -0.014532 -0.009839 1.323143
H 0.939608 0.109625 -0.457588
H 0.937053 0.054994 1.841054
H -0.679337 0.095453 1.859498
H -0.820394 0.072445 -0.630733
6
ICOND 381
C -0.004152 0.007635 0.008039
N -0.013825 0.014284 1.327800
H 0.932050 0.006574 -0.483333
H 0.870301 -0.156919 1.920782
H -0.648950 -0.017308 2.005074
H -0.911873 -0.121722 -0.716792
6
ICOND 382
C 0.011011 -0.027655 0.054003
N 0.003046 -0.006883 1.300974
H 0.833559 0.067018 -0.518445
H 0.855293 0.151687 1.763971
H -0.941560 -0.002504 1.768025
H -0.920722 0.208713 -0.462372
6
ICOND 383
C -0.018077 -0.019491 0.032914
N 0.000052 0.018662 1.312007
H 1.055344 0.032112 -0.316894
H 0.817055 -0.043250 1.550803
H -0.830800 -0.104210 1.835102
H -0.827074 0.088133 -0.420023
6
ICOND 384
C 0.011815 -0.016910 0.035457
N -0.007164 0.006588 1.330590
H 0.828988 0.078668 -0.642321
H 0.906862 -0.024769 1.828882
H -0.855219 -0.000002 1.886535
H -0.921761 0.055909 -0.712587
6
ICOND 385
C -0.010392 -0.021995 0.045414
N 0.019393 -0.000442 1.290690
H 0.940198 0.116308 -0.315214
H 0.829915 0.016418 1.840033
H -0.909650 0.048167 1.853186
H -1.006180 0.087132 -0.581680
6
ICOND 386
C -0.008269 -0.011799 0.008619
N 0.001729 0.002382 1.347418
H 0.937696 -0.047797 -0.619732
H 0.827229 0.110158 1.886552
H -0.787572 -0.103647 1.925960
H -0.902916 0.148681 -0.746545
6
ICOND 387
C 0.023915 0.023958 0.021011
N -0.021696 -0.001429 1.307039
H 0.771772 -0.099876 -0.342056
H 0.963442 -0.033526 1.850720
H -0.730355 -0.016306 1.941730
H -0.988164 -0.115701 -0.590661
6
ICOND 388
C 0.001093 -0.033952 -0.012940
N -0.008213 0.041383 1.344816
H 0.974850 0.143043 -0.559667
H 0.761285 -0.233025 1.807289
H -0.766054 -0.119194 1.999864
H -0.868983 0.038438 -0.508388
6
ICOND 389
C 0.021571 0.004393 0.038147
N -0.000989 0.006796 1.293597
H 0.872186 -0.076805 -0.513961
H 0.747949 0.007487 1.923481
H -0.809657 -0.092451 1.785469
H -1.053573 0.015034 -0.352527
6
ICOND 390
C -0.017235 -0.023094 0.019935
N 0.012407 0.024255 1.317745
H 0.921311 0.195383 -0.462963
H 0.879169 -0.237648 1.951164
H -0.873606 0.039900 1.711063
H -0.894051 -0.059672 -0.475481
6
ICOND 391
C 0.039586 0.003995 0.026377
N -0.019703 0.002654 1.332253
H 0.795173 -0.071154 -0.669988
H 0.903076 0.033223 1.726835
H -0.929462 -0.072599 1.743060
H -0.966373 0.026092 -0.354400
6
ICOND 392
C 0.020925 -0.009730 -0.019351
N -0.022379 0.009372 1.346043
H 0.920669 -0.001648 -0.553858
H 0.995461 -0.002755 1.838526
H -0.895295 -0.071463 2.057932
H -0.959040 0.061491 -0.544216
6
ICOND 393
C -0.002095 0.017458 0.039933
N 0.004516 0.004738 1.306089
H 0.905359 -0.100165 -0.570716
H 0.830849 -0.035584 1.802690
H -0.935201 -0.062818 2.144034
H -0.838807 -0.075139 -0.728374
6
ICOND 394
C 0.012860 -0.008454 0.064899
N -0.015781 -0.003088 1.294893
H 0.914940 0.033768 -0.655550
H 0.863796 0.038888 1.768993
H -0.833536 0.017286 1.949449
H -0.879050 0.053619 -0.556967
6
ICOND 395
C -0.016128 0.014509 0.032595
N 0.006939 -0.003314 1.292930
H 1.063707 -0.049546 -0.350085
H 0.892830 -0.014858 1.904929
H -0.849659 0.010985 1.847698
H -1.011262 -0.073295 -0.484700
6
ICOND 396
C -0.020048 -0.022591 0.038997
N 0.008069 0.000897 1.309780
H 0.941514 0.091739 -0.470448
H 0.863173 0.037463 1.823111
H -0.856008 0.014368 1.845802
H -0.822089 0.112962 -0.590970
6
ICOND 397
C -0.010784 0.001099 0.039860
N 0.005774 -0.000901 1.311838
H 0.878817 -0.120947 -0.548143
H 0.796558 0.131012 1.905208
H -0.779288 -0.124318 1.672774
H -0.847909 0.113692 -0.461211
6
ICOND 398
C 0.032537 -0.007801 0.003330
N -0.017626 0.018769 1.340825
H 0.902639 -0.027948 -0.658695
H 0.800806 -0.052985 1.830194
H -0.800095 -0.127429 1.879169
H -1.045859 0.040464 -0.449845
6
ICOND 399
C 0.015387 0.034213 0.020464
N -0.008967 -0.025258 1.311939
H 0.935434 -0.122022 -0.539742
H 0.800792 0.094220 1.889763
H -0.782833 0.084047 1.958111
H -1.012013 -0.112673 -0.509976
6
ICOND 400
C 0.015980 -0.019531 0.001682
N -0.007090 -0.023759 1.337937
H 0.883948 0.035172 -0.501494
H 0.930744 0.254272 1.813597
H -0.909168 0.054112 1.914801
H -0.997287 0.219111 -0.566320
6
ICOND 401
C 0.006087 0.019038 0.062427
N 0.006817 -0.021222 1.290598
H 0.843455 -0.134718 -0.544180
H 0.763360 0.175928 1.846814
H -0.850846 0.000270 1.792931
H -0.923166 0.026705 -0.500525
6
ICOND 402
C -0.032005 -0.020563 0.052955
N 0.014836 0.008292 1.309341
H 1.042268 0.085988 -0.378393
H 0.829917 -0.021582 1.636408
H -0.870917 -0.011556 1.768932
H -0.826317 0.076775 -0.579545
6
ICOND 403
C -0.038887 0.031059 0.012389
N 0.025515 0.000694 1.336602
H 0.938607 -0.095251 -0.620542
H 0.840849 -0.098753 2.037796
H -0.908377 0.006798 1.700111
H -0.762569 -0.192249 -0.565740
6
ICOND 404
C -0.009635 0.009788 0.018466
N 0.008906 -0.009273 1.315452
H 0.866366 -0.058692 -0.483929
H 0.867020 0.067343 1.928116
H -0.891632 0.005651 1.909367
H -0.850768 -0.002001 -0.580407
6
ICOND 405
C 0.007668 -0.009918 0.007316
N -0.004133 0.034670 1.321394
H 1.005056 0.076092 -0.442637
H 0.815938 -0.265413 1.782827
H -0.846571 -0.080066 1.852108
H -1.008293 -0.094234 -0.368951
6
ICOND 406
C 0.027467 0.004183 0.056974
N -0.026906 -0.010281 1.286010
H 0.876135 0.027319 -0.518438
H 0.903748 0.016532 1.803025
H -0.749845 0.082543 1.819427
H -0.983237 -0.033343 -0.380303
6
ICOND 407
C 0.009528 -0.001043 -0.005217
N 0.001528 0.009108 1.339171
H 1.045817 -0.057506 -0.449728
H 0.818841 0.004667 1.858054
H -0.830587 -0.099680 1.691184
H -1.168750 0.038386 -0.373938
6
ICOND 408
C -0.000532 -0.015311 0.031538
N 0.009036 0.008981 1.306737
H 0.898230 0.106609 -0.443025
H 0.774679 -0.082291 1.779348
H -0.889839 0.027468 1.982045
H -0.902287 0.005745 -0.579780
6
ICOND 409
C 0.010706 0.004474 0.039863
N -0.017787 -0.012230 1.298552
H 0.895760 -0.059697 -0.540063
H 0.920147 0.123181 1.770891
H -0.867196 -0.003960 1.957808
H -0.829041 0.057141 -0.435452
6
ICOND 410
C -0.015228 -0.027549 0.011069
N -0.020257 0.019166 1.330219
H 1.086898 0.074306 -0.442002
H 0.955436 -0.041498 1.725072
H -0.721023 -0.089449 2.063343
H -0.858526 0.118372 -0.690374
6
ICOND 411
C -0.019308 -0.012873 0.023695
N -0.003893 0.007541 1.309501
H 1.038030 -0.001283 -0.375956
H 0.934645 0.029813 1.853895
H -0.774909 -0.075804 1.896325
H -0.913773 0.095775 -0.580701
6
ICOND 412
C 0.039659 0.023706 0.002304
N -0.011956 -0.011063 1.326574
H 0.919582 -0.089527 -0.530745
H 0.749890 0.025083 1.804263
H -0.832887 0.029276 1.822646
H -1.142675 -0.093379 -0.285115
6
ICOND 413
C 0.009876 0.035432 0.040467
N -0.021969 -0.014586 1.319626
H 0.843458 -0.212927 -0.512827
H 0.886279 0.109769 1.661273
H -0.731284 -0.049470 1.895747
H -0.810802 -0.066594 -0.591004
6
ICOND 414
C 0.012689 0.019018 -0.002184
N -0.028406 -0.029148 1.319841
H 0.890626 0.037725 -0.571620
H 0.879107 0.044570 1.910771
H -0.716952 0.216832 1.968459
H -0.809187 -0.120578 -0.349567
6
ICOND 415
C 0.003967 0.013316 0.053036
N -0.014691 0.006761 1.287283
H 0.960668 -0.074554 -0.562194
H 0.890190 -0.051447 1.832822
H -0.824281 -0.057411 1.906650
H -0.869694 -0.069073 -0.424370
6
ICOND 416
C -0.007617 -0.013988 0.000486
N 0.009800 -0.013341 1.363651
H 0.894634 0.058901 -0.559185
H 0.912611 0.119385 1.774047
H -0.954750 0.062000 1.716768
H -0.897964 0.111635 -0.614096
6
ICOND 417
C -0.015508 -0.017683 0.066835
N 0.015083 -0.000320 1.313514
H 0.983108 0.034597 -0.698861
H 0.820883 0.077053 1.805930
H -0.946443 -0.025508 1.750649
H -0.882463 0.128847 -0.633570
6
ICOND 418
C -0.001883 -0.003686 0.039563
N -0.003427 0.000032 1.302854
H 1.049376 -0.067302 -0.492650
H 0.872035 0.096444 1.823015
H -0.840654 -0.086761 1.939875
H -1.010712 0.101057 -0.573256
6
ICOND 419
C -0.010067 -0.017015 0.025899
N 0.003743 0.009229 1.336991
H 0.912698 0.144361 -0.761899
H 0.837825 -0.114297 1.967969
H -0.844319 0.061442 1.835683
H -0.838340 -0.017137 -0.656377
6
ICOND 420
C -0.007997 0.002101 0.014244
N -0.001766 -0.002500 1.320929
H 1.006368 -0.036406 -0.484822
H 0.792525 0.043974 1.905826
H -0.717028 -0.022831 1.825029
H -0.962106 0.024987 -0.498715
6
ICOND 421
C 0.017192 0.001635 0.021612
N 0.005826 -0.014331 1.334036
H 0.829610 0.193574 -0.592510
H 0.901873 -0.119489 1.845758
H -0.999089 0.269000 1.867549
H -1.018047 -0.163432 -0.643330
6
ICOND 422
C -0.005848 0.017272 0.032075
N 0.001781 -0.019425 1.323328
H 0.929316 0.002556 -0.513701
H 0.853696 0.025044 1.717313
H -0.889368 0.136652 1.867599
H -0.848761 -0.100008 -0.569550
6
ICOND 423
C -0.009400 0.006754 0.055811
N -0.004328 -0.007166 1.285884
H 0.982719 -0.071196 -0.350148
H 0.820750 0.085309 1.656606
H -0.788064 -0.026700 1.984293
H -0.843352 0.031736 -0.551435
6
ICOND 424
C 0.018377 -0.001995 0.038771
N -0.005503 0.020616 1.308148
H 0.829152 -0.050307 -0.472019
H 0.869738 -0.078656 1.767576
H -0.874323 -0.137393 1.853937
H -0.966917 0.003669 -0.516634
6
ICOND 425
C 0.010842 -0.030829 0.043100
N 0.015383 0.019118 1.326883
H 0.784481 0.154910 -0.656404
H 0.844916 -0.108018 1.822854
H -1.038937 -0.013497 1.699199
H -0.933291 0.068048 -0.544646
6
ICOND 426
C -0.007993 -0.000833 0.034753
N 0.011605 0.018634 1.313210
H 1.011755 -0.006913 -0.502764
H 0.755568 -0.119228 1.796032
H -0.866943 -0.078699 1.825868
H -0.966452 -0.044157 -0.508772
6
ICOND 427
C 0.000368 -0.036856 0.040728
N 0.016295 -0.002028 1.285881
H 0.799119 0.211467 -0.399693
H 0.810866 0.018604 1.902721
H -0.956520 0.103456 1.779113
H -0.884256 0.133491 -0.363203
6
ICOND 428
C -0.017323 -0.005987 0.028459
N 0.031938 0.003173 1.318157
H 0.863647 -0.095720 -0.497098
H 0.739025 0.119746 1.969241
H -0.915739 -0.137545 1.656847
H -0.924429 0.140720 -0.512412
6
ICOND 429
C -0.000395 0.004816 0.035369
N 0.010698 0.001531 1.312260
H 0.961024 -0.024831 -0.589380
H 0.729220 -0.014450 1.764068
H -0.942425 -0.015102 1.948747
H -0.891751 -0.024231 -0.507207
6
ICOND 430
C -0.014222 -0.008405 0.006225
N 0.003928 -0.002752 1.326403
H 0.964708 0.049841 -0.402744
H 0.939967 0.018708 1.893280
H -0.862120 0.033722 1.793765
H -0.927796 0.036044 -0.517560
6
ICOND 431
C 0.000635 0.029761 0.058959
N -0.003149 -0.004840 1.281562
H 0.994446 -0.092021 -0.518595
H 0.840247 -0.054799 1.877666
H -0.825384 0.025830 1.878140
H -0.973120 -0.166115 -0.475322
6
ICOND 432
C 0.010909 0.011300 0.024673
N -0.010996 0.007264 1.311678
H 0.924891 -0.091342 -0.516706
H 0.891365 -0.023929 1.841305
H -0.843136 -0.084854 1.847276
H -0.950227 -0.035355 -0.420204
6
ICOND 433
C 0.001214 0.002761 0.061106
N 0.005630 0.014744 1.296415
H 0.860533 -0.112499 -0.503723
H 0.938686 0.000386 1.810376
H -0.971877 -0.166299 1.739006
H -0.920028 0.040677 -0.515712
6
ICOND 434
C -0.025909 0.032566 0.060994
N 0.033314 -0.016093 1.301202
H 0.791480 -0.092369 -0.497789
H 0.734315 0.007488 1.905884
H -0.888264 0.076806 1.744532
H -0.791907 -0.156070 -0.687871
6
ICOND 435
C 0.024378 0.005143 0.049551
N -0.005363 0.006629 1.298038
H 0.745995 -0.110777 -0.639573
H 0.782090 0.040874 1.758178
H -0.943342 -0.126082 2.017522
H -0.800496 0.042648 -0.491160
6
ICOND 436
C -0.011377 -0.005700 0.049113
N 0.016425 0.011344 1.301778
H 0.895449 0.093125 -0.515892
H 0.793437 -0.145481 1.913929
H -0.865473 0.039113 1.771060
H -0.916164 -0.076510 -0.570874
6
ICOND 437
C -0.012567 -0.014100 0.008043
N 0.001064 -0.007586 1.311490
H 1.043763 0.021948 -0.379020
H 0.854976 0.119525 1.933915
H -0.771045 0.000335 1.904234
H -0.992850 0.131479 -0.506840
6
ICOND 438
C -0.004960 -0.008968 0.040866
N -0.011103 0.013357 1.313117
H 0.941454 0.049786 -0.516167
H 0.934135 -0.091800 1.771054
H -0.810605 -0.027296 1.841127
H -0.851669 -0.009491 -0.557135
6
ICOND 439
C 0.000467 -0.016327 0.011274
N -0.009104 0.008220 1.339001
H 0.952994 -0.002957 -0.692616
H 0.816708 0.048786 1.820003
H -0.826016 -0.092671 1.924219
H -0.822747 0.127036 -0.520030
6
ICOND 440
C -0.003623 -0.018500 0.000681
N -0.000975 0.006121 1.310396
H 0.946761 0.107133 -0.420974
H 0.917190 -0.042326 1.996566
H -0.863835 0.026897 1.844837
H -0.943439 0.043520 -0.365275
6
ICOND 441
C -0.000084 0.012021 0.013366
N 0.002221 0.005470 1.325803
H 0.976990 -0.075733 -0.413096
H 0.903297 -0.032785 1.735868
H -0.943733 -0.058683 1.759267
H -0.966410 -0.051934 -0.391993
6
ICOND 442
C 0.021938 -0.005249 0.035488
N -0.034426 0.005342 1.308663
H 1.049308 -0.039166 -0.541386
H 0.972158 0.038142 1.661009
H -0.820344 -0.081253 1.958231
H -0.984006 0.070553 -0.413061
6
ICOND 443
C 0.021301 -0.004156 0.022296
N -0.017125 0.011293 1.319831
H 0.912919 -0.030610 -0.487589
H 0.962578 -0.020288 1.782942
H -0.867458 -0.089726 1.753892
H -1.023728 0.033201 -0.382550
6
ICOND 444
C 0.008377 0.006882 0.013860
N -0.006996 -0.006307 1.315045
H 0.960882 0.014893 -0.444895
H 0.862939 -0.015274 1.870121
H -0.802058 0.064308 1.929031
H -1.024298 -0.058240 -0.520613
6
ICOND 445
C 0.017883 0.018554 0.036526
N -0.021992 -0.002086 1.282574
H 0.994484 -0.115653 -0.406793
H 0.878715 0.022655 1.776564
H -0.794583 -0.050729 1.937289
H -0.985982 -0.048215 -0.292137
6
ICOND 446
C -0.015765 -0.007516 0.018989
N 0.006891 -0.010793 1.309227
H 1.010153 -0.023944 -0.369813
H 0.914523 0.150323 1.832203
H -0.913414 -0.013926 1.960517
H -0.919301 0.126994 -0.569492
6
ICOND 447
C -0.001549 -0.018038 0.073106
N 0.005770 0.002387 1.287590
H 0.916071 0.192203 -0.588288
H 0.950539 -0.111375 1.849232
H -1.005920 0.134804 1.773340
H -0.922415 -0.034026 -0.524606
6
ICOND 448
C -0.019818 -0.006423 0.051391
N 0.019123 0.019554 1.308206
H 0.934186 0.018312 -0.365359
H 0.783159 -0.117650 1.718853
H -0.841425 -0.074947 1.857719
H -0.905660 -0.020930 -0.729419
6
ICOND 449
C -0.008346 0.021237 -0.013705
N -0.018363 -0.018936 1.341360
H 0.987393 0.025714 -0.499426
H 1.026530 -0.028833 1.816165
H -0.867430 0.174485 1.919535
H -0.791976 -0.161128 -0.440059
6
ICOND 450
C 0.006989 -0.011727 0.051771
N -0.004117 0.007262 1.317175
H 0.847016 0.165460 -0.639654
H 0.831489 -0.156940 1.778164
H -0.836337 0.110833 1.771005
H -0.868188 -0.080613 -0.556867
6
ICOND 451
C -0.005647 -0.010493 0.023108
N 0.002069 0.026383 1.311877
H 0.932198 0.033522 -0.482776
H 0.882180 -0.156710 1.899212
H -0.870535 -0.098178 1.672060
H -0.905350 -0.020266 -0.320960
6
ICOND 452
C -0.016833 0.005102 0.043383
N -0.002498 -0.001397 1.308286
H 0.911315 0.040904 -0.640727
H 0.838117 -0.067053 1.925010
H -0.771860 0.068178 1.817608
H -0.742441 -0.083368 -0.525871
6
ICOND 453
C -0.017275 0.034976 0.016034
N 0.009049 -0.020159 1.333537
H 0.964073 -0.108678 -0.473825
H 0.902894 0.038718 1.875260
H -0.858948 0.082696 1.710725
H -0.928051 -0.149092 -0.561349
6
ICOND 454
C 0.010878 0.003333 0.017610
N -0.010630 0.028557 1.310397
H 0.902307 -0.121990 -0.384139
H 0.944272 -0.090806 1.847057
H -0.830285 -0.225059 1.874524
H -0.998116 0.001383 -0.483873
6
ICOND 455
C -0.011803 0.009085 0.063921
N 0.013523 -0.009083 1.291306
H 0.884191 -0.028917 -0.490211
H 0.833548 0.038066 1.839363
H -0.894751 0.034797 1.849675
H -0.870340 -0.025914 -0.631426
6
ICOND 456
C 0.000930 -0.005851 0.032564
N 0.004155 0.012877 1.323289
H 0.854475 0.037327 -0.560271
H 0.764332 -0.094669 1.697280
H -0.888604 -0.027759 2.029093
H -0.799009 -0.024161 -0.669717
6
ICOND 457
C -0.006948 0.009709 0.035302
N -0.000194 0.011781 1.307865
H 0.982505 -0.092230 -0.376579
H 0.788599 -0.044856 1.743214
H -0.741319 -0.108126 1.884954
H -0.944365 -0.034087 -0.573499
6
ICOND 458
C -0.008262 -0.014834 0.013284
N -0.003749 0.009854 1.309466
H 0.928926 0.109852 -0.569072
H 0.878336 -0.095043 1.949679
H -0.877797 0.029540 1.938423
H -0.779011 -0.004635 -0.401004
6
ICOND 459
C 0.014090 0.007395 0.018347
N -0.010776 -0.012769 1.304852
H 0.919472 -0.129172 -0.497831
H 0.745488 0.184028 1.897455
H -0.711600 -0.066964 2.047847
H -0.971409 0.101480 -0.525640
6
ICOND 460
C 0.010659 0.001916 0.026005
N 0.003156 -0.026424 1.310207
H 0.821212 0.041180 -0.512247
H 0.862641 0.130247 1.891352
H -0.926746 0.148418 1.829493
H -0.927869 0.024481 -0.452349
6
ICOND 461
C 0.004948 -0.027646 0.002731
N -0.014036 0.027298 1.332134
H 0.974410 0.024525 -0.514000
H 0.845970 -0.044336 1.831581
H -0.745766 -0.173712 1.824627
H -0.938516 0.143418 -0.413494
6
ICOND 462
C -0.002614 0.009223 0.049826
N -0.015169 -0.010729 1.320324
H 0.912470 -0.092777 -0.541731
H 0.930469 0.118342 1.690266
H -0.767450 -0.028171 1.901271
H -0.833602 0.041862 -0.717752
6
ICOND 463
C 0.016701 -0.028988 0.030776
N -0.019573 -0.008600 1.323407
H 0.882517 0.125910 -0.477585
H 0.987360 0.108242 1.793399
H -0.777196 0.063013 1.785235
H -1.019591 0.167473 -0.585006
6
ICOND 464
C 0.012610 0.022176 0.003911
N -0.015218 -0.025679 1.326934
H 1.007163 -0.161569 -0.493618
H 0.878194 0.216775 1.754043
H -0.853466 -0.001236 1.769490
H -0.970592 0.038775 -0.242995
6
ICOND 465
C 0.008668 -0.003954 0.044480
N -0.013974 -0.025558 1.301248
H 0.902627 -0.121523 -0.552892
H 0.819609 0.338487 1.775731
H -0.772316 -0.053156 1.950330
H -0.858969 0.238381 -0.512423
6
ICOND 466
C -0.017440 0.005217 0.024711
N 0.011929 -0.017121 1.330554
H 1.012833 0.029448 -0.504676
H 0.912923 0.056103 1.934655
H -0.855135 0.113639 1.689390
H -1.028717 -0.023425 -0.630421
6
ICOND 467
C -0.015848 -0.005550 0.038297
N 0.012951 -0.021035 1.309275
H 0.955440 0.131259 -0.601568
H 0.958724 0.041512 2.060892
H -0.947620 0.199569 1.761822
H -0.957778 -0.013989 -0.598306
6
ICOND 468
C 0.008735 0.016985 0.019466
N -0.006021 0.010881 1.335040
H 0.921129 -0.114111 -0.485170
H 0.838964 -0.060935 1.737632
H -0.787184 -0.102179 1.881574
H -0.993253 -0.076209 -0.644971
6
ICOND 469
C -0.026452 -0.015296 0.072679
N 0.019463 0.006681 1.285195
H 0.863547 0.099463 -0.480576
H 0.886369 -0.058315 1.869907
H -0.938335 0.028157 1.688158
H -0.767047 0.019999 -0.529459
6
ICOND 470
C 0.009579 0.004855 -0.039213
N -0.009970 -0.006174 1.381192
H 0.972783 0.032323 -0.591343
H 0.943865 -0.022298 1.832545
H -0.888689 0.075416 1.814081
H -1.003482 -0.057472 -0.508778
6
ICOND 471
C 0.012775 0.004294 0.029431
N -0.006244 -0.016846 1.298680
H 0.954910 0.019705 -0.520735
H 0.872421 0.070627 1.952893
H -0.847193 0.098670 1.870299
H -1.045490 -0.006065 -0.426839
6
ICOND 472
C -0.001057 0.012768 0.047082
N -0.002152 0.001430 1.289387
H 0.941009 -0.028566 -0.524987
H 0.892844 -0.060233 1.898542
H -0.885032 0.010131 1.915332
H -0.906335 -0.093228 -0.494312
6
ICOND 473
C -0.004460 0.006146 0.012624
N 0.011967 0.013305 1.322439
H 0.847509 -0.134424 -0.581507
H 0.777031 0.012921 2.075000
H -0.807345 -0.172576 1.790934
H -0.930374 0.036040 -0.538807
6
ICOND 474
C 0.003330 -0.021792 0.031663
N 0.002850 0.001108 1.294827
H 0.945926 0.113013 -0.378473
H 0.889186 0.007736 1.928311
H -0.857064 0.039652 1.742554
H -1.057305 0.083683 -0.389819
6
ICOND 475
C 0.004869 0.001004 0.020138
N 0.000448 0.001082 1.318147
H 0.988983 -0.009460 -0.594007
H 0.859913 -0.003752 1.931440
H -0.899433 -0.010598 1.765042
H -1.013661 -0.003168 -0.386679
6
ICOND 476
C -0.007560 -0.008817 0.003661
N -0.008015 0.016939 1.321391
H 0.894888 0.097022 -0.343776
H 0.931196 -0.169547 1.828267
H -0.784056 0.011560 1.834613
H -0.840655 -0.069409 -0.452207
6
ICOND 477
C 0.030806 -0.006442 0.054533
N -0.015693 -0.001286 1.292277
H 0.796665 0.144299 -0.674119
H 0.793586 -0.106950 1.904292
H -0.786356 0.138295 2.012170
H -0.952651 -0.081071 -0.576640
6
ICOND 478
C -0.000010 0.023985 0.061345
N 0.011433 -0.027477 1.290808
H 0.874997 -0.033207 -0.528150
H 0.889472 0.078333 1.924874
H -0.946039 0.151601 1.671651
H -0.977171 -0.100538 -0.463376
6
ICOND 479
C 0.015268 -0.005192 -0.023707
N -0.030693 0.016032 1.347068
H 0.955374 -0.079695 -0.556896
H 0.979190 0.006136 1.795912
H -0.827087 -0.164241 1.955477
H -0.862816 0.076874 -0.358483
6
ICOND 480
C -0.002258 0.012776 0.014820
N 0.010511 -0.001076 1.320208
H 0.824647 -0.099051 -0.377323
H 0.834196 0.034178 1.829111
H -0.882592 -0.057375 1.766209
H -0.895400 -0.014917 -0.467525
6
ICOND 481
C 0.001136 -0.000505 0.047645
N -0.002474 -0.002710 1.303647
H 1.044575 0.005859 -0.469330
H 0.889936 0.016041 1.678116
H -0.929522 0.014448 1.829417
H -0.984145 0.007323 -0.448466
6
ICOND 482
C 0.011443 -0.011005 0.050787
N -0.019528 -0.000894 1.294337
H 0.917982 -0.073189 -0.555250
H 0.920417 0.155952 1.828635
H -0.796384 -0.116409 1.784448
H -0.906938 0.177100 -0.376145
6
ICOND 483
C 0.021601 -0.006350 0.046564
N -0.012841 0.007700 1.310925
H 0.849772 -0.024066 -0.618560
H 0.831778 0.012004 1.692996
H -0.887242 -0.077451 1.831854
H -0.873095 0.058139 -0.404800
6
ICOND 484
C 0.013248 0.024346 0.018794
N -0.030438 -0.001466 1.313420
H 1.099465 -0.085594 -0.500501
H 0.835499 -0.051272 1.665531
H -0.716618 0.000783 2.049769
H -0.953171 -0.133429 -0.417333
6
ICOND 485
C 0.015895 0.022248 0.049511
N 0.006864 -0.009485 1.304780
H 0.879724 -0.107816 -0.672812
H 0.757922 0.043076 1.847165
H -0.955329 -0.001702 1.837063
H -0.966953 -0.066668 -0.459641
6
ICOND 486
C -0.005542 0.016737 0.048045
N 0.003550 -0.004745 1.308628
H 0.913356 -0.030925 -0.452366
H 0.860413 -0.039148 1.734392
H -0.862351 0.044587 1.799372
H -0.894753 -0.107875 -0.565630
6
ICOND 487
C 0.009340 -0.004142 0.027172
N -0.017733 -0.002966 1.311702
H 0.939371 0.058693 -0.404184
H 0.915764 -0.016510 1.724284
H -0.779837 0.059648 1.816099
H -0.940120 -0.011293 -0.414607
6
ICOND 488
C -0.010946 0.024292 0.018020
N -0.000796 -0.026966 1.325792
H 0.899233 -0.045079 -0.338849
H 0.822365 0.085673 1.706354
H -0.741268 0.137931 1.807603
H -0.838943 -0.093102 -0.540324
6
ICOND 489
C -0.011213 -0.014737 0.033409
N 0.006771 0.012278 1.305319
H 0.994357 -0.035251 -0.366364
H 0.906307 0.045058 1.767820
H -0.919209 -0.136872 1.859936
H -0.942024 0.131935 -0.525383
6
ICOND 490
C -0.035583 -0.008470 0.033092
N 0.005634 0.033500 1.314231
H 1.031200 0.044171 -0.312743
H 0.933658 -0.231601 1.723709
H -0.812810 -0.105258 1.827876
H -0.806657 -0.071933 -0.622882
6
ICOND 491
C 0.003474 0.006456 0.016693
N -0.021173 -0.002283 1.323246
H 0.982800 -0.081879 -0.595129
H 0.884564 0.064227 1.816599
H -0.761159 -0.057266 1.855744
H -0.853394 0.029767 -0.391249
6
ICOND 492
C 0.009149 -0.024403 0.003784
N 0.000698 0.017655 1.334991
H 0.980657 0.169597 -0.726582
H 0.775339 -0.154493 1.995439
H -0.863237 0.031216 1.971151
H -1.011392 -0.001062 -0.563524
6
ICOND 493
C 0.007039 -0.004278 0.053692
N -0.006482 0.005125 1.280241
H 0.942628 -0.046275 -0.423481
H 0.821128 0.041235 1.769995
H -0.825447 -0.084661 1.905325
H -0.932059 0.069418 -0.408889
6
ICOND 494
C -0.006768 0.006084 0.000149
N -0.003010 -0.012039 1.330918
H 0.997148 -0.051360 -0.465137
H 0.939087 0.102514 1.986283
H -0.792777 0.010271 1.694226
H -1.021047 0.033408 -0.439022
6
ICOND 495
C 0.009098 0.003613 0.044697
N 0.000608 0.006052 1.302142
H 0.843211 -0.044549 -0.576522
H 0.879364 -0.017383 1.850065
H -0.948250 -0.057468 1.891318
H -0.891108 -0.007712 -0.519112
6
ICOND 496
C -0.011488 0.015384 0.059254
N -0.014122 -0.002539 1.323673
H 1.038736 -0.056671 -0.590533
H 0.904421 -0.018159 1.612409
H -0.764437 0.003578 1.865773
H -0.845718 -0.076646 -0.714380
6
ICOND 497
C -0.009423 -0.015149 0.019096
N 0.022079 0.003750 1.325635
H 0.939535 0.036523 -0.572233
H 0.788373 0.030012 1.961347
H -0.945861 -0.029080 1.751763
H -0.976617 0.090826 -0.516720
6
ICOND 498
C 0.022944 0.024332 0.023829
N -0.023700 0.000089 1.312085
H 0.914763 -0.100966 -0.564083
H 0.984170 -0.045473 1.832303
H -0.878920 -0.021678 1.822334
H -0.963900 -0.122832 -0.334490
6
ICOND 499
C 0.006953 -0.006814 0.053283
N -0.020863 0.011663 1.292524
H 0.966386 0.007430 -0.542327
H 0.945257 -0.047399 1.747847
H -0.838351 -0.059355 1.955904
H -0.866201 0.018417 -0.484270
6
ICOND 500
C -0.007190 0.014184 0.022615
N -0.002078 -0.009003 1.336171
H 0.903315 -0.079968 -0.578356
H 0.960764 0.060628 1.888695
H -0.852791 -0.002499 1.675756
H -0.896804 -0.021957 -0.550221
6
ICOND 501
C -0.015391 0.023625 0.036896
N 0.002286 -0.011568 1.316577
H 0.928835 -0.003369 -0.541250
H 0.906701 -0.064582 1.885367
H -0.834316 0.124583 1.755168
H -0.849724 -0.177204 -0.561218
6
ICOND 502
C -0.004401 0.011948 0.029816
N 0.011818 -0.001240 1.303688
H 0.976059 -0.099262 -0.547713
H 0.688267 0.040831 1.931475
H -0.820376 -0.060014 1.814288
H -0.955740 -0.006589 -0.396603
6
ICOND 503
C 0.002505 0.008639 0.036267
N -0.001122 -0.011255 1.326138
H 0.884888 0.021962 -0.648934
H 0.864735 0.000920 1.815235
H -0.888752 0.096486 1.888501
H -0.875114 -0.065859 -0.642097
6
ICOND 504
C 0.020662 0.012138 0.047108
N 0.000676 0.006693 1.292271
H 0.842847 -0.031932 -0.497682
H 0.822645 -0.089861 1.802876
H -0.940449 -0.015067 1.877671
H -0.980454 -0.100665 -0.428673
6
ICOND 505
C -0.009209 0.000877 0.064015
N -0.005416 -0.005487 1.290095
H 0.989314 0.031171 -0.419759
H 1.034610 -0.000614 1.720018
H -0.937589 0.057178 1.936520
H -0.901439 -0.021938 -0.653660
6
ICOND 506
C -0.011514 0.007997 0.035944
N -0.005420 0.007757 1.297841
H 0.891700 -0.002225 -0.410143
H 0.827430 -0.103399 1.812201
H -0.736903 -0.001697 1.911979
H -0.769829 -0.095685 -0.504314
6
ICOND 507
C -0.002360 -0.012459 0.061039
N -0.002597 0.011794 1.299153
H 1.020585 0.084903 -0.435374
H 1.002805 -0.096742 1.694194
H -0.954090 0.003935 1.836806
H -1.005126 -0.007615 -0.602935
6
ICOND 508
C -0.006826 -0.003550 0.001980
N 0.011428 0.006288 1.318527
H 1.009165 -0.023349 -0.418544
H 0.829016 0.003419 1.941906
H -0.886627 -0.061318 1.918479
H -1.029056 0.036142 -0.515133
6
ICOND 509
C -0.021739 0.019058 0.034809
N 0.024743 0.001003 1.316876
H 0.911217 -0.077650 -0.533277
H 0.762897 -0.043790 1.915074
H -0.891282 -0.018835 1.836999
H -0.867781 -0.100584 -0.660028
6
ICOND 510
C 0.014997 -0.021082 0.042991
N -0.013007 0.017130 1.283233
H 0.889103 0.057901 -0.531489
H 0.875872 -0.050346 1.860834
H -0.880565 -0.076330 1.951680
H -0.882250 0.081779 -0.352234
6
ICOND 511
C -0.015543 0.007199 0.071365
N -0.008841 -0.013761 1.272002
H 1.002311 0.094253 -0.381390
H 0.989133 -0.050827 1.879763
H -0.754174 0.179076 1.854040
H -0.929353 -0.117019 -0.605419
6
ICOND 512
C 0.034148 -0.018908 0.033654
N -0.004578 0.038910 1.315746
H 0.694229 -0.081250 -0.624666
H 0.850430 -0.067082 1.906452
H -0.910433 -0.299497 1.701155
H -0.977214 0.132329 -0.394729
6
ICOND 513
C -0.006163 -0.008695 0.027933
N -0.011437 0.000690 1.307951
H 1.066685 0.045496 -0.456902
H 0.928566 0.000891 1.824871
H -0.801270 0.015356 1.793164
H -0.961697 0.032203 -0.396486
6
ICOND 514
C 0.019123 -0.002115 0.055533
N -0.004725 -0.016608 1.297014
H 0.770797 0.088286 -0.636752
H 0.827541 0.035067 1.892606
H -0.859100 0.149115 1.885821
H -0.901279 -0.016520 -0.553704
6
ICOND 515
C -0.037390 0.015298 0.022334
N 0.040685 0.000394 1.315577
H 0.945674 -0.130553 -0.428743
H 0.730160 0.042000 1.938262
H -0.951916 -0.087856 1.868300
H -0.844017 -0.011220 -0.652477
6
ICOND 516
C -0.025027 -0.024928 0.036043
N 0.007590 0.001436 1.321159
H 0.929876 0.109941 -0.464756
H 0.944776 0.028692 1.738631
H -0.931569 0.023701 1.792973
H -0.750556 0.114526 -0.582288
6
ICOND 517
C 0.035510 0.010470 0.051482
N -0.020559 0.001463 1.287833
H 0.923118 -0.042823 -0.588432
H 0.767765 -0.030341 1.771689
H -0.797048 -0.013860 1.870463
H -1.031003 -0.057968 -0.289936
6
ICOND 518
C -0.003611 0.001298 0.017172
N 0.014555 -0.006388 1.330070
H 0.914442 0.028516 -0.675320
H 0.697252 0.005980 1.946271
H -0.868937 0.059117 1.697000
H -0.901990 -0.020314 -0.382507
6
ICOND 519
C 0.001497 -0.014188 0.012909
N 0.016914 0.007856 1.320000
H 0.997345 -0.042260 -0.529036
H 0.807913 0.080528 1.970771
H -0.958954 -0.126331 1.732961
H -1.099142 0.147835 -0.398582
6
ICOND 520
C -0.002691 -0.021588 -0.001077
N -0.009710 0.008285 1.327437
H 0.939964 0.031140 -0.445187
H 0.907451 0.044670 1.795436
H -0.844739 -0.074947 1.977758
H -0.835718 0.141063 -0.488694
6
ICOND 521
C 0.030971 0.005756 0.046887
N -0.034792 0.013779 1.307378
H 0.961422 -0.063180 -0.653593
H 1.027003 -0.065485 1.768296
H -0.854670 -0.098202 2.020061
H -1.019107 -0.033115 -0.587852
6
ICOND 522
C 0.001062 0.010303 -0.019872
N -0.016105 -0.016376 1.349357
H 1.082985 -0.017350 -0.584288
H 0.839204 0.069406 1.921596
H -0.701569 0.078488 1.940497
H -1.009494 -0.025696 -0.519266
6
ICOND 523
C -0.010144 -0.003023 0.052651
N -0.015784 0.006635 1.307988
H 0.901282 -0.101578 -0.537394
H 1.035962 0.082744 1.817098
H -0.802648 -0.145800 1.842293
H -0.794503 0.108444 -0.652186
6
ICOND 524
C 0.001437 -0.006003 0.041752
N -0.017999 -0.010877 1.309286
H 0.912055 -0.036079 -0.524055
H 0.995361 0.154512 1.763937
H -0.838645 -0.021321 1.995815
H -0.835798 0.125504 -0.654142
6
ICOND 525
C 0.018272 -0.023039 0.062136
N -0.008334 0.018589 1.271248
H 0.937086 0.092572 -0.471953
H 0.781825 -0.085969 1.901043
H -0.746797 -0.051057 1.864442
H -1.073885 0.060490 -0.426171
6
ICOND 526
C -0.024400 -0.023418 0.019428
N 0.001778 0.001934 1.332527
H 1.012920 0.080579 -0.485144
H 0.913760 0.047512 1.796822
H -0.826770 -0.004575 1.818483
H -0.834083 0.128445 -0.605716
6
ICOND 527
C 0.034247 -0.012909 0.035462
N -0.020959 -0.002809 1.306196
H 0.777606 0.098795 -0.448634
H 0.916458 -0.005517 1.780971
H -0.801030 0.070820 1.691031
H -1.009598 0.028644 -0.323994
6
ICOND 528
C 0.009839 -0.021987 0.055071
N -0.008788 0.013663 1.279966
H 0.992879 0.114617 -0.444236
H 0.904242 -0.081736 1.768739
H -0.904131 -0.005226 1.893862
H -0.988043 0.044307 -0.388016
6
ICOND 529
C 0.004938 0.003139 0.037293
N -0.020483 0.012680 1.292812
H 1.022052 -0.080975 -0.454057
H 0.956257 -0.021702 1.836606
H -0.789007 -0.123068 1.819689
H -0.963501 0.012177 -0.338707
6
ICOND 530
C -0.005539 -0.017011 0.009146
N -0.005962 0.011142 1.339686
H 0.944250 0.048963 -0.522889
H 0.906717 -0.024067 1.766268
H -0.849836 -0.049348 1.818723
H -0.852334 0.072194 -0.514705
6
ICOND 531
C 0.009412 -0.013163 0.025367
N -0.002376 0.026038 1.308373
H 0.941251 -0.014407 -0.505004
H 0.890319 -0.085132 1.864947
H -0.913534 -0.158783 1.998095
H -0.997093 0.053276 -0.568708
6
ICOND 532
C 0.002222 0.033847 0.055945
N 0.006724 -0.015914 1.294690
H 0.789892 -0.139443 -0.630693
H 0.774406 0.049293 1.951757
H -0.849342 0.029585 1.726034
H -0.834831 -0.121333 -0.431738
6
ICOND 533
C -0.005588 0.014338 0.037275
N 0.001473 0.006997 1.311887
H 0.874889 -0.123242 -0.533077
H 0.772608 -0.006639 1.761268
H -0.823943 -0.107538 1.930847
H -0.777475 -0.030520 -0.560328
6
ICOND 534
C -0.002246 0.032895 0.045787
N 0.006846 -0.020351 1.318145
H 0.915471 -0.143367 -0.517871
H 0.841147 0.091057 1.883475
H -0.791699 0.038081 1.581615
H -1.033285 -0.094684 -0.536802
6
ICOND 535
C 0.014831 0.020792 0.025423
N -0.006439 0.002829 1.306825
H 0.868680 -0.100168 -0.554331
H 0.916823 -0.043252 1.905508
H -0.932751 -0.043712 1.835662
H -0.939878 -0.099747 -0.376675
6
ICOND 536
C -0.012170 -0.021830 0.027190
N 0.001445 0.006022 1.304695
H 0.958156 0.078439 -0.380442
H 0.881327 0.010771 1.767388
H -0.874356 -0.016080 1.988486
H -0.840299 0.103113 -0.556714
6
ICOND 537
C -0.018524 0.008098 0.025012
N 0.023859 -0.029151 1.341842
H 0.774254 -0.062980 -0.527449
H 0.776476 0.223610 1.817687
H -0.888645 0.067533 1.641839
H -0.773028 0.080448 -0.603557
6
ICOND 538
C -0.002091 0.021226 0.035222
N -0.017297 -0.027822 1.305030
H 0.992837 -0.054580 -0.465328
H 0.928168 0.121577 1.727022
H -0.806261 0.119569 1.956064
H -0.849513 -0.052735 -0.499326
6
ICOND 539
C -0.011221 0.016656 0.069504
N 0.011932 0.007231 1.291806
H 0.924201 -0.064664 -0.477345
H 0.919299 -0.086785 1.878160
H -0.901287 -0.036221 1.700770
H -0.974396 -0.111131 -0.607602
6
ICOND 540
C 0.011075 0.014699 0.020955
N -0.008080 -0.026779 1.309174
H 0.940668 -0.027483 -0.531590
H 0.808527 0.126202 1.888134
H -0.799220 0.121500 1.858083
H -0.969579 -0.023162 -0.383894
6
ICOND 541
C -0.015958 0.000444 0.004653
N -0.010976 0.002238 1.352426
H 0.964669 0.062251 -0.628496
H 0.980648 -0.086426 1.870971
H -0.798177 0.061172 1.778649
H -0.804624 -0.073386 -0.597241
6
ICOND 542
C -0.014558 -0.009461 0.020783
N -0.003739 0.002931 1.320316
H 0.959472 -0.010009 -0.549142
H 0.780935 0.050275 1.904350
H -0.693040 -0.056026 1.757833
H -0.822072 0.087678 -0.435074
6
ICOND 543
C -0.016175 -0.008432 0.020561
N 0.007832 0.020912 1.320666
H 0.943230 0.040832 -0.476556
H 1.042423 -0.139003 1.980521
H -0.960691 -0.062716 1.694037
H -0.941181 -0.029273 -0.522242
6
ICOND 544
C -0.001599 0.003693 0.015943
N -0.003950 -0.007390 1.316660
H 1.023211 -0.016300 -0.615413
H 0.769744 0.046623 1.929158
H -0.787147 0.022721 1.881860
H -0.931889 0.005665 -0.409206
6
ICOND 545
C -0.015816 -0.014527 0.011520
N 0.001217 -0.004863 1.318222
H 0.977479 0.029565 -0.434682
H 0.864999 0.094650 1.861124
H -0.821413 -0.002889 1.849103
H -0.849650 0.119200 -0.458184
6
ICOND 546
C -0.007884 0.010535 0.025692
N -0.003002 -0.021321 1.310461
H 1.060146 -0.005135 -0.561520
H 0.945610 0.089685 1.884168
H -0.935422 0.110707 1.894644
H -0.934758 -0.024454 -0.460841
6
ICOND 547
C -0.010068 0.017429 -0.001084
N 0.010921 -0.009956 1.337369
H 0.941478 -0.021903 -0.451051
H 0.820512 -0.016438 1.859556
H -0.865190 0.075982 1.848838
H -0.928659 -0.106832 -0.555938
6
ICOND 548
C 0.006791 0.017332 0.035888
N 0.001718 -0.010089 1.295357
H 0.838222 -0.020375 -0.459679
H 0.795005 -0.016540 1.820099
H -0.877053 0.077772 1.939654
H -0.860902 -0.107044 -0.455164
6
ICOND 549
C -0.002458 -0.014264 0.038263
N 0.014073 -0.014958 1.314071
H 0.907993 -0.022638 -0.389863
H 0.890589 0.221332 1.724092
H -0.986803 -0.021821 1.854769
H -0.978052 0.200810 -0.632385
6
ICOND 550
C 0.006372 -0.028467 0.035786
N -0.000418 -0.004146 1.305507
H 0.874681 0.146001 -0.567452
H 0.816970 0.051512 1.903947
H -0.845119 0.070480 1.821367
H -0.916592 0.128570 -0.452764
6
ICOND 551
C 0.017084 0.008078 0.020733
N -0.004189 -0.037246 1.319250
H 1.067326 -0.048800 -0.656771
H 0.863149 0.265672 1.896216
H -0.952357 0.112497 1.798356
H -1.123333 0.091963 -0.344419
6
ICOND 552
C -0.007333 0.003082 0.013843
N 0.003461 0.003382 1.328480
H 0.882553 -0.035926 -0.443279
H 0.795555 -0.004472 1.764551
H -0.812674 -0.040252 1.825264
H -0.826209 -0.003046 -0.499360
6
ICOND 553
C -0.007711 -0.004595 0.033158
N 0.000122 0.005644 1.288750
H 0.980036 -0.001723 -0.508243
H 0.866106 -0.008903 1.929724
H -0.895874 -0.039233 1.941060
H -0.860151 0.026149 -0.393329
6
ICOND 554
C -0.003408 -0.008172 0.007226
N 0.022697 0.021393 1.320093
H 0.965355 0.074701 -0.543922
H 0.650974 -0.180925 1.989768
H -0.869281 -0.026675 1.891223
H -1.021826 -0.067048 -0.494583
6
ICOND 555
C -0.005178 -0.032347 0.039778
N -0.012414 0.017905 1.315226
H 0.946876 0.054431 -0.591836
H 0.910513 0.019571 1.755947
H -0.833869 -0.123919 1.938426
H -0.789383 0.186292 -0.580010
6
ICOND 556
C -0.009101 -0.011113 0.055747
N 0.014636 -0.023876 1.277421
H 0.865077 0.188422 -0.426253
H 0.772667 0.034813 1.974129
H -0.812339 0.251931 1.939298
H -0.920390 -0.011101 -0.629522
6
ICOND 557
C -0.012169 0.008329 0.053243
N 0.010002 -0.008067 1.281013
H 0.969256 0.012318 -0.418135
H 0.887028 -0.009196 1.940537
H -0.885566 0.073205 1.754928
H -0.964794 -0.063406 -0.439771
6
ICOND 558
C 0.013572 -0.004157 0.023770
N -0.008402 0.008954 1.325248
H 0.855823 0.052927 -0.602376
H 0.909829 -0.094614 1.910687
H -0.842975 0.009725 1.805959
H -0.967539 -0.042957 -0.540402
6
ICOND 559
C -0.001263 -0.033837 0.041979
N 0.009977 0.029207 1.285105
H 0.904582 0.087754 -0.572877
H 0.824900 -0.087302 2.049686
H -0.920232 -0.134410 1.834488
H -0.932842 0.131045 -0.396466
6
ICOND 560
C -0.012283 0.014235 0.016222
N 0.008288 -0.020886 1.315150
H 0.949866 0.063484 -0.446301
H 0.780033 -0.011594 1.903116
H -0.791922 0.197248 1.918948
H -0.906880 -0.128433 -0.571718
6
ICOND 561
C -0.003791 -0.028380 0.025933
N 0.001882 0.014746 1.306428
H 0.908716 0.046114 -0.499928
H 0.856072 0.025785 1.959377
H -0.824003 -0.106987 1.924245
H -0.921804 0.168127 -0.574073
6
ICOND 562
C 0.015403 -0.018284 0.029003
N 0.003723 0.008066 1.325429
H 0.818508 0.102026 -0.568034
H 0.850284 -0.051926 1.782773
H -0.965339 0.015011 1.727727
H -0.938589 0.040513 -0.433407
6
ICOND 563
C 0.002826 -0.001472 0.036157
N 0.009507 -0.000401 1.304621
H 0.956942 0.047088 -0.600735
H 0.725051 -0.039043 1.880215
H -0.898377 0.047351 1.794055
H -0.949355 -0.032305 -0.360559
6
ICOND 564
C 0.008785 -0.015200 -0.014574
N 0.005794 0.015266 1.349431
H 0.981205 0.035025 -0.550067
H 0.698776 -0.049645 1.742903
H -0.904002 -0.073010 1.827364
H -0.961077 0.056497 -0.325771
6
ICOND 565
C -0.000306 -0.004768 0.037303
N 0.016114 -0.001531 1.310620
H 0.968091 -0.005602 -0.417614
H 0.726834 0.047260 1.821386
H -0.825485 -0.017841 1.761196
H -1.089688 0.054224 -0.548979
6
ICOND 566
C -0.010785 -0.013643 0.044214
N 0.015976 0.006365 1.297059
H 0.880557 -0.030265 -0.459046
H 0.844664 0.074585 1.961218
H -0.885514 -0.105841 1.652419
H -0.933275 0.135540 -0.432467
6
ICOND 567
C 0.006766 0.001670 0.016056
N -0.002384 -0.008145 1.330960
H 0.914252 -0.022157 -0.559581
H 0.826565 0.071208 1.738423
H -0.906744 0.011749 1.826746
H -0.881521 0.032484 -0.419218
6
ICOND 568
C 0.009988 -0.001531 0.037539
N -0.007006 -0.013456 1.311001
H 0.869470 -0.015355 -0.441944
H 0.899278 0.121797 1.713051
H -0.870272 0.026932 1.926175
H -0.920057 0.071823 -0.589405
6
ICOND 569
C -0.026307 -0.031188 0.015562
N 0.008022 -0.004224 1.333581
H 0.935378 0.172552 -0.604409
H 0.821574 0.040467 1.994606
H -0.750856 0.089761 1.892837
H -0.804321 0.127253 -0.727210
6
ICOND 570
C 0.024831 -0.015271 0.024364
N -0.021951 -0.025344 1.308866
H 0.879265 0.070383 -0.641210
H 0.811599 0.200098 1.933772
H -0.723932 0.113723 1.995105
H -0.957609 0.149759 -0.493244
6
ICOND 571
C -0.010724 -0.027787 0.034227
N -0.008128 0.002279 1.301242
H 1.008916 0.173123 -0.499646
H 0.902832 -0.027858 1.849104
H -0.817496 0.078971 1.910674
H -0.853627 0.074952 -0.477216
6
ICOND 572
C 0.031486 0.007097 0.007457
N -0.011279 -0.018602 1.330337
H 0.862632 -0.039950 -0.578765
H 0.912349 0.130158 1.816670
H -0.961110 0.050372 1.914659
H -1.032056 0.033370 -0.455159
6
ICOND 573
C -0.008670 -0.009364 0.019467
N -0.012439 0.015490 1.304299
H 1.023909 0.034868 -0.383234
H 0.890869 -0.088166 1.790769
H -0.768750 -0.052768 1.940374
H -0.869966 0.002339 -0.431718
6
ICOND 574
C -0.017437 -0.001702 0.034923
N -0.002367 -0.013692 1.321281
H 1.028617 -0.007345 -0.607044
H 0.907993 0.115840 1.823491
H -0.857737 0.035889 1.897279
H -0.838365 0.066127 -0.617524
6
ICOND 575
C 0.017149 0.003364 0.070825
N -0.013116 0.010802 1.292179
H 0.814994 -0.003903 -0.640408
H 0.960538 -0.093683 1.813436
H -0.916606 -0.031513 1.806692
H -0.880876 -0.061036 -0.506642
6
ICOND 576
C -0.002619 0.011633 0.024884
N 0.006147 -0.000240 1.341783
H 0.922374 -0.064671 -0.485524
H 0.813123 -0.001895 1.798357
H -0.760320 -0.027180 1.655669
H -1.029396 -0.041434 -0.637624
6
ICOND 577
C -0.001599 -0.014002 0.021424
N 0.002956 0.011930 1.321156
H 1.077134 0.109535 -0.434702
H 0.877277 -0.114701 1.809889
H -0.866474 0.024626 1.873842
H -1.109975 -0.018501 -0.590357
6
ICOND 578
C -0.016961 -0.021356 0.045722
N 0.012903 0.003258 1.292359
H 0.925344 0.085864 -0.517604
H 0.762376 0.019263 2.033707
H -0.762927 0.003833 1.667628
H -0.902127 0.100044 -0.414257
6
ICOND 579
C -0.008188 0.031486 0.023868
N 0.001722 0.002706 1.313063
H 0.915432 -0.219494 -0.379853
H 0.749275 0.019476 1.694648
H -0.783588 -0.134205 1.890540
H -0.807559 -0.078267 -0.463311
6
ICOND 580
C -0.019533 0.019678 0.064110
N -0.000446 -0.001578 1.299361
H 0.971083 -0.062907 -0.396615
H 0.968787 -0.045487 1.741170
H -0.817664 0.008902 1.745962
H -0.883428 -0.112889 -0.637278
6
ICOND 581
C -0.011053 -0.007395 0.017017
N 0.023095 0.000882 1.331956
H 0.944459 0.033645 -0.642378
H 0.844412 0.004159 1.918826
H -1.069429 0.006484 1.801504
H -0.908718 0.031508 -0.516870
6
ICOND 582
C -0.000396 0.006213 -0.004950
N 0.017027 0.017325 1.338352
H 0.859114 -0.129054 -0.540328
H 0.702019 -0.021839 1.976105
H -0.836311 -0.181190 1.763835
H -0.956687 0.017384 -0.465829
6
ICOND 583
C -0.003673 0.021610 -0.007162
N 0.001004 0.020793 1.342059
H 0.962284 -0.158505 -0.444864
H 0.838567 -0.112260 1.927170
H -0.740301 -0.169911 1.867320
H -1.030772 -0.105525 -0.641022
6
ICOND 584
C 0.003132 -0.025400 0.044462
N -0.006567 0.020707 1.298397
H 0.912705 0.126299 -0.457011
H 0.839117 -0.122664 1.770818
H -0.800978 -0.030688 1.923968
H -0.896902 0.041776 -0.537195
6
ICOND 585
C 0.013587 -0.011314 0.018259
N -0.003047 0.006774 1.312956
H 0.797122 -0.008914 -0.415496
H 0.840757 0.033642 1.787272
H -0.866963 -0.075630 1.923352
H -0.890358 0.091502 -0.484832
6
ICOND 586
C 0.013760 -0.025238 0.039520
N -0.005167 0.004657 1.302654
H 0.900581 0.143773 -0.534227
H 0.827972 -0.028982 1.854002
H -0.835338 0.047609 1.807396
H -0.985255 0.073389 -0.426894
6
ICOND 587
C -0.009087 -0.002032 0.038792
N 0.016516 -0.012367 1.287930
H 0.914694 0.092985 -0.409249
H 0.786721 -0.000636 1.939040
H -0.885927 0.139019 1.810599
H -0.936764 -0.035352 -0.426860
6
ICOND 588
C -0.007743 0.013622 -0.015066
N 0.007221 0.006383 1.338218
H 0.929693 -0.122540 -0.571865
H 0.871843 0.001499 2.030067
H -0.910836 -0.107137 1.833609
H -0.898834 -0.022709 -0.435733
6
ICOND 589
C 0.007546 0.009239 0.018808
N -0.017348 0.020112 1.297428
H 1.059515 -0.036014 -0.433396
H 0.970918 -0.162075 1.890466
H -0.841617 -0.079132 2.047366
H -1.037626 -0.112235 -0.484939
6
ICOND 590
C 0.016541 -0.006807 0.033747
N 0.011052 -0.004403 1.305956
H 0.848516 0.023932 -0.517724
H 0.681996 0.048437 1.876765
H -0.847099 0.017384 1.896332
H -1.033930 0.052468 -0.532244
6
ICOND 591
C -0.007197 0.006191 0.036358
N 0.011796 -0.017307 1.331827
H 0.896629 -0.016721 -0.704105
H 0.842911 0.101471 1.847970
H -0.968869 0.067621 1.813002
H -0.848875 0.014386 -0.624282
6
ICOND 592
C 0.008938 -0.006227 0.018911
N 0.010252 0.011716 1.320048
H 0.785579 0.044313 -0.546527
H 0.761915 -0.091654 1.873606
H -0.917470 -0.017278 1.828309
H -0.878887 -0.024036 -0.451403
6
ICOND 593
C -0.016407 0.003942 0.014454
N 0.023898 0.037602 1.342138
H 0.916335 -0.140090 -0.583799
H 0.845855 -0.139076 1.848194
H -1.030692 -0.275616 1.730222
H -0.868180 -0.014616 -0.544501
6
ICOND 594
C -0.011897 -0.020838 0.025632
N 0.003895 0.037427 1.300616
H 1.092306 0.012897 -0.566359
H 0.809848 -0.146750 2.063694
H -0.783646 -0.198641 1.937132
H -1.030972 0.060583 -0.540516
6
ICOND 595
C 0.002593 0.025785 0.040735
N -0.014854 0.011515 1.305617
H 0.987582 -0.072090 -0.572470
H 0.957090 -0.167101 1.782180
H -0.892171 -0.026760 1.820562
H -0.876990 -0.201058 -0.385629
6
ICOND 596
C -0.001321 -0.005004 0.017022
N -0.006144 0.001252 1.329417
H 0.934544 0.020612 -0.472893
H 0.900841 0.000518 1.729839
H -0.861084 -0.000351 1.812885
H -0.873198 0.021410 -0.473536
6
ICOND 597
C -0.000036 0.027170 0.041141
N 0.012679 -0.005048 1.307255
H 0.795475 -0.091582 -0.484202
H 0.788400 -0.037331 1.854111
H -0.873387 0.017639 1.938619
H -0.886221 -0.142098 -0.691476
6
ICOND 598
C -0.004014 -0.020400 0.053542
N 0.023921 0.000900 1.281136
H 0.898646 0.087980 -0.486883
H 0.755665 0.027599 2.055395
H -0.893812 0.018238 1.671471
H -1.045068 0.096582 -0.407683
6
ICOND 599
C -0.004225 -0.000133 0.018346
N -0.010946 -0.010126 1.320739
H 1.031002 0.075920 -0.424442
H 0.852253 -0.010011 1.710359
H -0.769145 0.119163 1.867066
H -0.911712 -0.042785 -0.451864
6
ICOND 600
C -0.008702 0.008961 0.027455
N 0.034109 -0.013078 1.331120
H 1.026277 -0.075314 -0.619864
H 0.695257 0.117649 1.930783
H -0.979553 -0.001532 1.620114
H -1.112293 0.034209 -0.482610
6
ICOND 601
C -0.020030 -0.002850 0.074161
N 0.013493 0.008754 1.278941
H 1.012003 -0.076631 -0.535007
H 0.725053 0.039479 1.897166
H -0.778202 -0.125769 1.743667
H -0.907838 0.075226 -0.488546
6
ICOND 602
C 0.012103 0.002100 0.059014
N -0.014308 0.009623 1.306870
H 0.890005 -0.021280 -0.597755
H 0.828645 -0.058390 1.644117
H -0.827430 -0.050709 1.813131
H -0.836520 -0.028339 -0.449909
6
ICOND 603
C -0.008775 0.004238 0.000496
N 0.011489 -0.009769 1.326290
H 0.995491 0.008689 -0.615657
H 0.704763 0.032820 1.985334
H -0.846591 0.060596 1.861708
H -0.908805 -0.016836 -0.394865
6
ICOND 604
C 0.010499 0.002347 0.076316
N 0.007072 -0.009355 1.272070
H 0.895452 -0.072340 -0.540963
H 0.806871 0.130091 1.853500
H -0.937476 -0.035969 1.803371
H -0.988115 0.080262 -0.428806
6
ICOND 605
C 0.004629 0.023514 0.032840
N -0.010551 -0.008969 1.307056
H 0.851770 -0.048544 -0.423070
H 1.006381 -0.033131 1.774993
H -0.909983 0.065517 1.821432
H -0.856689 -0.139199 -0.454697
6
ICOND 606
C 0.012277 0.020614 0.044227
N 0.007236 0.003358 1.295955
H 0.817034 -0.095905 -0.561873
H 0.911518 -0.050503 1.956789
H -1.008730 -0.041654 1.744345
H -0.966539 -0.104038 -0.401950
6
ICOND 607
C 0.013620 0.008130 0.005689
N -0.019296 -0.000048 1.306325
H 1.029958 -0.026814 -0.431285
H 0.899841 -0.022176 1.814625
H -0.837390 0.000570 1.964188
H -0.986484 -0.047717 -0.295445
6
ICOND 608
C 0.011505 -0.017789 0.037244
N -0.012221 -0.011547 1.301678
H 1.016727 0.038913 -0.524741
H 0.817876 0.152590 1.787642
H -0.803420 0.019862 1.766313
H -0.998366 0.160886 -0.288282
6
ICOND 609
C -0.003381 0.004987 0.056482
N -0.025825 0.008443 1.287861
H 0.988737 -0.019371 -0.503185
H 0.941324 -0.070460 1.716868
H -0.755223 -0.033813 1.983353
H -0.775764 -0.053049 -0.493175
6
ICOND 610
C -0.002040 -0.032472 -0.016093
N 0.012925 0.035674 1.314875
H 1.042603 0.041599 -0.459302
H 0.691878 -0.091588 2.050249
H -0.832206 -0.203320 1.963340
H -1.057576 0.144277 -0.361641
6
ICOND 611
C 0.016251 -0.000381 0.025225
N -0.016975 -0.013139 1.339210
H 0.971692 0.143544 -0.594642
H 0.977412 -0.060677 1.745752
H -0.864520 0.202866 1.700064
H -1.042228 -0.098641 -0.488615
6
ICOND 612
C -0.010790 -0.007890 0.053713
N -0.005742 0.010573 1.306155
H 0.926037 -0.000610 -0.495905
H 0.978012 -0.024091 1.754602
H -0.870420 -0.068031 1.843584
H -0.825373 0.039768 -0.619639
6
ICOND 613
C -0.021233 0.008648 0.017882
N 0.010095 -0.005443 1.314465
H 0.968464 -0.049826 -0.249039
H 0.915241 0.037801 1.782276
H -0.853893 -0.002858 1.922743
H -0.917256 -0.012462 -0.662163
6
ICOND 614
C 0.001402 0.022702 0.043166
N -0.005294 -0.001366 1.315673
H 0.933099 -0.090475 -0.486039
H 0.901373 -0.036218 1.695941
H -0.864387 -0.010876 1.886096
H -0.913215 -0.113764 -0.620024
6
ICOND 615
C 0.011417 0.019553 0.046917
N -0.020728 0.012817 1.323202
H 0.829285 -0.017662 -0.603985
H 0.938437 -0.195935 1.762002
H -0.751297 0.005037 1.753472
H -0.864372 -0.202347 -0.584794
6
ICOND 616
C 0.003095 0.003117 0.035840
N -0.005217 -0.011322 1.317268
H 0.975515 0.061786 -0.498246
H 0.824688 -0.006824 1.737860
H -0.794888 0.119979 1.942873
H -0.969682 -0.054741 -0.641452
6
ICOND 617
C -0.012401 -0.005514 0.007089
N 0.007581 0.003590 1.324800
H 1.077179 0.051076 -0.481733
H 0.806228 -0.045960 1.934704
H -0.807959 0.022392 1.803164
H -1.033124 -0.011735 -0.477415
6
ICOND 618
C 0.009417 -0.006969 0.000061
N -0.010507 0.003837 1.341725
H 0.851014 0.076008 -0.546726
H 0.904138 -0.065592 1.881369
H -0.801245 0.043326 1.851681
H -0.920043 -0.024083 -0.559076
6
ICOND 619
C -0.005924 0.000693 0.035565
N 0.006145 -0.009879 1.306741
H 0.885230 0.099925 -0.520250
H 0.780338 -0.043135 1.863881
H -0.830464 0.147387 1.897789
H -0.849947 -0.075157 -0.550840
6
ICOND 620
C -0.005629 0.012931 0.011483
N -0.006656 -0.027178 1.314273
H 0.991267 0.021144 -0.455471
H 0.844497 0.087358 1.848634
H -0.788221 0.169440 1.958575
H -0.888040 -0.054286 -0.479063
6
ICOND 621
C -0.015478 -0.012025 0.051702
N 0.020071 -0.008517 1.303689
H 0.966301 -0.010777 -0.565649
H 0.808856 0.148544 1.892688
H -0.943531 -0.024323 1.710673
H -0.926205 0.148082 -0.496855
6
ICOND 622
C -0.010356 0.014392 0.041009
N 0.009520 0.000730 1.299980
H 0.902233 -0.044126 -0.520837
H 0.766341 -0.048660 1.894088
H -0.829815 0.001668 1.895815
H -0.847724 -0.090376 -0.549362
6
ICOND 623
C 0.008309 0.001131 -0.024854
N -0.013093 0.017517 1.339130
H 0.921564 -0.074140 -0.489351
H 0.880474 -0.050641 1.886507
H -0.820849 -0.140623 2.102524
H -0.898208 0.008549 -0.539726
6
ICOND 624
C 0.011909 0.028985 0.010092
N -0.008861 -0.034369 1.329507
H 0.930847 -0.101447 -0.470031
H 0.960634 0.169631 1.772526
H -0.920918 0.120738 1.946060
H -0.989240 -0.056516 -0.570980
6
ICOND 625
C 0.015675 0.008241 0.035428
N -0.023624 0.003703 1.314026
H 0.853218 0.060592 -0.646116
H 0.810321 -0.144578 1.851223
H -0.671948 0.082371 1.804934
H -0.849980 -0.147965 -0.419050
6
ICOND 626
C 0.016155 -0.011804 0.049428
N -0.013515 -0.004152 1.317526
H 0.839570 0.056642 -0.627141
H 0.917430 0.042838 1.778090
H -0.847337 0.033882 1.713793
H -0.914229 0.064872 -0.489074
6
ICOND 627
C -0.007145 -0.007428 0.031713
N 0.013410 -0.008957 1.309600
H 0.879468 -0.032301 -0.380167
H 0.789258 0.145852 1.812172
H -0.849981 -0.029414 1.747045
H -0.919993 0.128761 -0.482328
6
ICOND 628
C 0.003971 0.002443 0.049974
N -0.002755 -0.008048 1.301217
H 0.875744 -0.062352 -0.516609
H 0.923913 0.109345 1.846961
H -0.882094 -0.029534 1.766049
H -0.926567 0.065272 -0.500635
6
ICOND 629
C -0.009540 -0.025302 0.045673
N 0.006939 0.002876 1.294390
H 0.961914 0.077543 -0.424812
H 0.837703 0.056122 1.883561
H -0.821359 -0.018179 1.747503
H -0.961081 0.145823 -0.464416
6
ICOND 630
C 0.006684 -0.001348 0.031234
N -0.004005 -0.028331 1.312331
H 0.836815 0.082842 -0.445351
H 0.887448 0.119175 1.846360
H -0.811080 0.188852 1.761353
H -0.937130 0.018811 -0.497882
6
ICOND 631
C 0.000141 0.029636 0.027145
N -0.002544 -0.003716 1.304649
H 0.907076 -0.152783 -0.303410
H 0.882969 0.004151 1.734403
H -0.830720 -0.044855 2.006776
H -0.925664 -0.107749 -0.617867
6
ICOND 632
C -0.004128 -0.005399 0.064416
N -0.003229 -0.027866 1.298570
H 1.054255 -0.012151 -0.500562
H 0.892090 0.245017 1.715954
H -0.851529 0.069044 1.915942
H -1.000795 0.149562 -0.670751
6
ICOND 633
C -0.005815 0.017329 0.074879
N 0.014965 -0.014756 1.297135
H 0.930270 -0.102747 -0.596885
H 0.777753 0.106188 1.792784
H -0.910146 0.005195 1.743228
H -0.936573 -0.009938 -0.583187
6
ICOND 634
C 0.022361 -0.013734 0.027673
N -0.012811 0.003551 1.297879
H 0.864435 0.030304 -0.380582
H 0.812998 0.029183 1.802340
H -0.762974 -0.029971 1.756665
H -1.002703 0.084665 -0.270735
6
ICOND 635
C -0.010253 0.017249 0.041479
N -0.007261 0.010502 1.297308
H 0.985860 -0.085068 -0.570421
H 0.785110 -0.091526 1.921978
H -0.699057 -0.068226 1.894574
H -0.848941 -0.106479 -0.494909
6
ICOND 636
C -0.004296 -0.012540 0.041628
N 0.015071 0.016930 1.316957
H 0.902436 0.100687 -0.649840
H 0.841721 -0.149798 1.929396
H -0.966468 0.002033 1.706400
H -0.935947 -0.038840 -0.509516
6
ICOND 637
C -0.013589 -0.002134 0.036700
N 0.006165 0.021991 1.305047
H 0.986863 -0.110709 -0.478258
H 0.790808 -0.021794 1.915331
H -0.754952 -0.208659 1.811185
H -0.946579 0.061014 -0.547653
6
ICOND 638
C 0.028160 0.025230 0.043860
N -0.019303 -0.013393 1.301015
H 0.955639 -0.085147 -0.532641
H 0.962144 0.027137 1.648653
H -0.996611 0.048103 1.900860
H -0.988262 -0.104415 -0.345498
6
ICOND 639
C -0.009018 0.022969 -0.011859
N 0.006884 -0.021229 1.332961
H 1.002616 -0.044764 -0.410907
H 0.846106 0.053095 1.959229
H -0.819563 0.112484 1.797329
H -1.017429 -0.099339 -0.454713
6
ICOND 640
C 0.001584 -0.001408 0.031558
N 0.010057 0.006487 1.307282
H 0.890587 -0.007091 -0.515243
H 0.810011 -0.029300 1.894298
H -0.914082 -0.036559 1.815945
H -0.945112 -0.000420 -0.464232
6
ICOND 641
C -0.005020 0.025500 0.041681
N 0.004464 -0.022108 1.307678
H 0.877899 -0.006013 -0.500198
H 0.835652 0.001060 1.802213
H -0.870112 0.167069 1.805903
H -0.845692 -0.158568 -0.503181
6
ICOND 642
C 0.013593 0.014502 0.064583
N 0.003075 0.007936 1.303274
H 0.942925 -0.073908 -0.580599
H 0.903959 -0.068020 1.733096
H -1.014526 -0.056690 1.553325
H -1.036930 -0.084320 -0.312580
6
ICOND 643
C -0.002812 -0.023055 0.030181
N 0.023240 0.020696 1.296313
H 0.950899 -0.011715 -0.418410
H 0.803607 0.012689 2.041917
H -0.914940 -0.172306 1.843133
H -1.128985 0.158288 -0.567071
6
ICOND 644
C -0.024951 -0.002519 0.055392
N 0.020604 0.006027 1.281628
H 0.993653 0.021459 -0.505274
H 0.800099 -0.050039 2.024576
H -0.868387 -0.007851 1.787630
H -0.914555 -0.017309 -0.503497
6
ICOND 645
C 0.008799 -0.031396 0.032242
N -0.010260 0.014114 1.289169
H 0.944857 0.150466 -0.385351
H 0.826456 -0.064116 1.828222
H -0.768085 -0.002090 2.047492
H -0.965440 0.093467 -0.516075
6
ICOND 646
C -0.009637 -0.021041 0.034631
N 0.003943 -0.000153 1.315447
H 0.908726 0.062416 -0.434966
H 0.977830 0.066952 1.789062
H -0.939619 -0.008064 1.916878
H -0.886980 0.131351 -0.690229
6
ICOND 647
C 0.007869 -0.016728 0.007115
N -0.010045 -0.003025 1.316524
H 0.962015 0.090881 -0.550542
H 0.857822 0.028903 1.888487
H -0.852173 0.049103 2.043035
H -0.921794 0.072318 -0.487574
6
ICOND 648
C 0.001347 -0.004109 -0.017312
N -0.009360 -0.026395 1.349361
H 0.999200 -0.029502 -0.432110
H 0.881861 0.245270 1.802364
H -0.780873 0.049477 1.776092
H -0.986165 0.150424 -0.418340
6
ICOND 649
C -0.014580 -0.003824 0.006369
N -0.000532 -0.000420 1.336110
H 1.026434 0.014496 -0.365673
H 0.890119 0.011517 1.782370
H -0.767659 0.003397 1.685638
H -0.967895 0.021958 -0.472187
6
ICOND 650
C 0.006727 0.003161 0.078321
N -0.000700 0.013966 1.278983
H 0.838278 -0.031437 -0.477779
H 0.855820 -0.084850 1.737420
H -0.882788 -0.073785 1.821938
H -0.881680 -0.041606 -0.514407
6
ICOND 651
C -0.034410 0.022095 0.047250
N 0.006151 -0.000461 1.283635
H 1.015480 -0.113923 -0.388654
H 0.928321 -0.013248 1.914596
H -0.831187 -0.041907 1.878391
H -0.788367 -0.087587 -0.531846
6
ICOND 652
C 0.010587 -0.025077 0.008274
N -0.001595 -0.004998 1.308013
H 0.974695 0.179362 -0.431695
H 0.783116 -0.000313 1.958780
H -0.773380 0.122232 1.933451
H -1.088318 0.066749 -0.462674
6
ICOND 653
C -0.009154 -0.009161 0.029108
N 0.011710 -0.006880 1.327044
H 0.955287 -0.101435 -0.610108
H 0.744946 0.217385 1.934284
H -0.791314 -0.118544 1.629008
H -0.962627 0.207271 -0.467815
6
ICOND 654
C -0.015201 0.010461 0.044878
N 0.004024 -0.010780 1.304829
H 0.875627 -0.104560 -0.484201
H 0.805349 0.123650 1.853083
H -0.755886 -0.036301 1.836555
H -0.800010 0.042429 -0.599173
6
ICOND 655
C -0.001023 -0.003603 0.022897
N -0.007399 0.009874 1.300880
H 1.038335 -0.014096 -0.514192
H 0.874709 -0.031721 2.049838
H -0.739300 -0.064556 1.880478
H -1.058759 0.016079 -0.493273
6
ICOND 656
C -0.001679 0.003432 0.054692
N 0.015588 0.001245 1.302267
H 0.867840 0.045512 -0.590307
H 0.825134 -0.080169 1.881602
H -0.967814 0.057455 1.803556
H -0.921755 -0.080960 -0.569843
6
ICOND 657
C 0.036962 0.014414 0.051245
N -0.038443 -0.012230 1.284739
H 0.942475 -0.051705 -0.487118
H 1.001998 0.051277 1.658806
H -0.863823 0.040894 1.959945
H -0.986619 -0.042164 -0.322051
6
ICOND 658
C -0.021904 0.032565 0.061105
N 0.012838 -0.012436 1.292194
H 1.066234 -0.103014 -0.516059
H 0.831432 -0.006844 1.844719
H -0.886539 0.051843 1.722949
H -0.928685 -0.156945 -0.463013
6
ICOND 659
C 0.001474 0.010532 0.026176
N -0.002069 0.001230 1.306871
H 0.941203 -0.019838 -0.449301
H 0.858498 -0.054092 1.827905
H -0.859345 0.012227 1.766317
H -0.929150 -0.080783 -0.344358
6
ICOND 660
C 0.004180 -0.010827 0.046531
N -0.001293 -0.003195 1.292189
H 0.797722 0.043828 -0.484639
H 0.998942 0.043793 2.027116
H -0.875722 0.019990 1.820792
H -0.952751 0.065702 -0.601055
6
ICOND 661
C 0.019673 0.016030 0.033875
N -0.008630 -0.023779 1.297521
H 0.868397 -0.064575 -0.469787
H 0.817941 0.136842 1.858720
H -0.801763 0.075005 1.890707
H -0.998909 -0.007748 -0.440833
6
ICOND 662
C 0.018539 -0.003960 0.042449
N -0.011500 -0.000492 1.305973
H 0.889849 -0.019807 -0.484040
H 0.956936 0.050213 1.759571
H -0.909906 -0.034160 1.785442
H -0.997827 0.057729 -0.441690
6
ICOND 663
C 0.009736 0.012801 0.038506
N -0.000935 0.004829 1.293471
H 1.004801 -0.102958 -0.497321
H 0.880918 -0.003580 1.905775
H -0.910219 -0.083129 1.787623
H -1.078424 -0.029855 -0.356135
6
ICOND 664
C 0.034508 -0.005033 0.080518
N -0.014212 -0.008739 1.272810
H 0.930641 0.080483 -0.519123
H 0.880080 0.006347 1.730042
H -0.901913 0.101234 1.736197
H -1.122214 -0.006714 -0.320342
6
ICOND 665
C -0.033399 -0.004128 0.045846
N 0.022098 0.019729 1.306486
H 1.123085 -0.126511 -0.466913
H 0.837860 0.024119 1.984371
H -0.810201 -0.224834 1.718375
H -1.060108 0.102268 -0.664123
6
ICOND 666
C 0.007145 -0.008219 0.037828
N 0.000898 0.001526 1.320380
H 0.861586 0.075182 -0.616771
H 0.947500 -0.040362 1.857996
H -0.975535 0.046333 1.788207
H -0.931101 -0.004488 -0.555301
6
ICOND 667
C 0.022610 0.001738 0.012382
N -0.013761 -0.015320 1.335443
H 0.872311 0.042302 -0.582107
H 0.826726 0.051479 1.748949
H -0.823564 0.108381 2.036557
H -0.953489 -0.009989 -0.635577
6
ICOND 668
C -0.025205 -0.004802 0.001355
N 0.007444 0.004642 1.341146
H 1.083647 0.068946 -0.284687
H 0.969873 -0.077391 1.685449
H -0.906146 0.040580 1.794199
H -0.950692 -0.039465 -0.575082
6
ICOND 669
C 0.016481 -0.019640 0.001847
N -0.009215 0.022337 1.301853
H 1.006085 0.091431 -0.365398
H 0.843628 -0.132899 1.886813
H -0.830798 -0.053642 2.039315
H -1.087108 0.018597 -0.400748
6
ICOND 670
C -0.007385 -0.012222 0.047244
N 0.018511 -0.033675 1.307651
H 0.924620 0.026600 -0.617141
H 0.729936 0.287393 1.856341
H -0.934362 0.107634 1.800069
H -0.889466 0.191792 -0.500400
6
ICOND 671
C 0.019566 -0.015427 0.048704
N -0.013686 0.006334 1.301468
H 0.933344 0.063355 -0.588327
H 0.884529 -0.015736 1.739111
H -0.905419 -0.010344 1.924771
H -0.955260 0.058400 -0.468161
6
ICOND 672
C -0.000130 0.000930 0.033769
N -0.012822 -0.009033 1.315573
H 1.026216 0.076524 -0.668401
H 0.812219 -0.025179 1.885691
H -0.736638 0.119688 1.838261
H -0.922097 -0.056603 -0.466306
6
ICOND 673
C -0.007708 -0.006809 0.049671
N -0.001388 0.012621 1.287887
H 0.903290 0.028164 -0.537491
H 0.891956 -0.076790 1.998219
H -0.809730 -0.040277 1.759298
H -0.874459 -0.005390 -0.435441
6
ICOND 674
C 0.003344 -0.009905 0.079757
N 0.005840 0.006165 1.277178
H 0.800062 -0.047131 -0.577111
H 0.776953 0.070581 1.890284
H -0.830780 -0.109865 1.822155
H -0.867202 0.118691 -0.560177
6
ICOND 675
C 0.014149 -0.018896 0.008230
N -0.001062 -0.014423 1.338979
H 0.791920 0.242601 -0.527672
H 0.889223 -0.041640 1.866904
H -0.877512 0.248002 1.718938
H -0.957338 -0.023568 -0.490047
6
ICOND 676
C 0.009795 -0.021645 0.066749
N -0.003121 0.007907 1.288195
H 0.894423 0.149641 -0.398232
H 0.780219 -0.081238 1.654452
H -0.794071 0.055182 1.801996
H -0.953833 0.024276 -0.481260
6
ICOND 677
C -0.002596 0.003756 0.020327
N 0.004141 0.012963 1.309315
H 0.959230 -0.144820 -0.406152
H 0.841354 0.041852 1.857793
H -0.854477 -0.191335 1.791015
H -0.972738 0.069470 -0.406408
6
ICOND 678
C 0.002788 -0.018276 0.054215
N 0.019527 0.024135 1.300135
H 0.923187 -0.002186 -0.655075
H 0.629410 -0.052438 1.850684
H -0.910675 -0.157128 1.938257
H -0.946439 0.094021 -0.573562
6
ICOND 679
C 0.038323 -0.003097 0.010813
N -0.029648 -0.007384 1.321911
H 0.863548 -0.016362 -0.556834
H 0.897016 0.089816 1.763256
H -0.818229 -0.002068 1.988058
H -0.986690 0.068076 -0.419961
6
ICOND 680
C 0.027315 0.017473 0.017889
N -0.026913 -0.018742 1.310665
H 0.999532 -0.019160 -0.526441
H 0.928939 0.042558 1.850111
H -0.791608 0.111256 1.883890
H -1.088157 -0.082291 -0.361027
6
ICOND 681
C 0.005293 -0.002210 0.030454
N -0.002638 -0.001015 1.317559
H 0.855837 0.040175 -0.615573
H 0.923422 -0.022473 1.951611
H -0.885806 0.039388 1.816774
H -0.919825 -0.016672 -0.551687
6
ICOND 682
C -0.014055 0.012065 0.044859
N 0.001134 0.016031 1.319646
H 0.974908 -0.037733 -0.445239
H 0.864804 -0.149255 1.679052
H -0.806873 -0.055799 1.849488
H -0.881253 -0.123616 -0.682685
6
ICOND 683
C -0.001068 0.027136 0.020768
N -0.009504 -0.014659 1.330399
H 0.849177 -0.011661 -0.504259
H 0.939332 -0.055976 1.821204
H -0.794883 0.139633 1.872366
H -0.848857 -0.191419 -0.651262
6
ICOND 684
C -0.022248 0.005347 0.029219
N -0.000562 0.001658 1.305828
H 0.964887 -0.013456 -0.366154
H 0.817308 -0.031108 1.853522
H -0.676688 -0.001256 1.752615
H -0.832788 -0.040888 -0.461160
6
ICOND 685
C -0.005255 -0.011569 0.029650
N 0.024944 -0.013566 1.337231
H 0.848000 0.080232 -0.639996
H 0.754204 0.082383 1.886484
H -0.955023 0.094834 1.620369
H -0.931200 0.068789 -0.529481
6
ICOND 686
C -0.012816 -0.015963 0.064366
N 0.002579 0.000320 1.275715
H 1.024524 0.081674 -0.518022
H 0.823994 0.010353 1.874160
H -0.843263 0.029634 1.867406
H -0.888488 0.063956 -0.444798
6
ICOND 687
C -0.006959 0.001390 0.061709
N 0.002364 -0.007490 1.290443
H 0.891548 -0.001606 -0.406871
H 0.874090 0.045981 1.723479
H -0.867722 0.030701 1.785872
H -0.847905 0.012435 -0.496743
6
ICOND 688
C -0.004351 -0.010728 0.054469
N 0.010342 0.020991 1.292176
H 0.841505 -0.008275 -0.441471
H 0.767052 -0.071529 1.980073
H -0.709388 -0.124794 1.838455
H -0.991050 0.040674 -0.709194
6
ICOND 689
C 0.010294 -0.012383 0.060388
N -0.004933 0.031314 1.296311
H 0.868568 -0.009008 -0.423200
H 0.886505 -0.133353 1.796600
H -0.779251 -0.169368 1.817630
H -1.029853 0.024089 -0.651094
6
ICOND 690
C 0.017372 0.030678 0.051520
N -0.017104 -0.025335 1.296790
H 0.940378 -0.087823 -0.552683
H 0.891406 0.080028 1.781446
H -0.825431 0.108683 1.813344
H -0.975554 -0.114156 -0.403230
6
ICOND 691
C 0.017511 -0.018358 0.036941
N -0.005381 0.019645 1.298385
H 0.881575 0.120560 -0.579990
H 0.856662 -0.153668 1.934586
H -0.884340 -0.007432 1.751450
H -0.987634 -0.013825 -0.315753
6
ICOND 692
C 0.005134 0.002197 0.002976
N -0.013910 0.010986 1.340787
H 0.978570 -0.007769 -0.575971
H 0.734246 -0.083359 1.757723
H -0.689398 -0.040638 1.909797
H -0.891283 -0.047028 -0.485975
6
ICOND 693
C 0.016530 0.001574 0.015362
N -0.006556 0.005397 1.301867
H 0.895317 -0.063202 -0.368794
H 0.844867 0.020524 1.795540
H -0.874631 -0.082787 1.861716
H -0.971280 0.031737 -0.289601
6
ICOND 694
C -0.000990 -0.009381 0.049806
N 0.015490 -0.003451 1.295232
H 0.953507 -0.006306 -0.494485
H 0.754015 0.090964 1.897688
H -0.873452 -0.028371 1.734569
H -1.037500 0.103358 -0.456850
6
ICOND 695
C -0.000748 0.006308 0.021566
N 0.002344 -0.001566 1.327322
H 0.914595 0.011026 -0.591358
H 0.754146 -0.041011 1.828747
H -0.816721 0.040671 1.786247
H -0.875683 -0.064035 -0.452336
6
ICOND 696
C 0.013220 0.011436 0.016826
N 0.007068 -0.006517 1.325289
H 0.959066 -0.054915 -0.602100
H 0.657941 0.033225 1.868801
H -0.819187 0.005680 1.837796
H -1.053437 -0.029601 -0.448500
6
ICOND 697
C 0.012734 0.005774 0.070252
N 0.014404 -0.015529 1.266513
H 0.812257 -0.068501 -0.439745
H 0.778653 0.147874 1.942979
H -0.905818 0.003254 1.792338
H -1.036837 0.064399 -0.459057
6
ICOND 698
C 0.000299 -0.005015 0.034782
N -0.011842 0.023809 1.313107
H 1.016104 -0.059917 -0.580159
H 0.859135 -0.071620 1.817873
H -0.785107 -0.170516 1.857481
H -0.929147 0.030964 -0.483744
6
ICOND 699
C -0.010160 -0.031134 0.037954
N 0.011407 0.044213 1.315820
H 0.984233 0.044498 -0.498472
H 0.836166 -0.163756 1.842771
H -0.874294 -0.226525 1.735966
H -0.983625 0.102181 -0.544280
6
ICOND 700
C -0.001306 -0.001651 0.031364
N -0.000080 0.011581 1.319264
H 0.899487 0.089870 -0.441291
H 0.930106 -0.169363 1.756715
H -0.898817 0.049434 1.804752
H -0.914109 -0.111197 -0.553573
6
ICOND 701
C -0.006837 -0.015214 0.030490
N -0.003970 0.014305 1.296188
H 0.979491 -0.008180 -0.412929
H 0.858041 0.004276 1.827479
H -0.817858 -0.116561 2.013963
H -0.883103 0.102865 -0.530883
6
ICOND 702
C 0.010431 -0.016417 0.061086
N 0.015567 0.014829 1.298378
H 0.779713 0.066578 -0.673552
H 0.773924 -0.073140 1.913226
H -0.984983 -0.041503 1.720939
H -0.909148 0.037504 -0.457700
6
ICOND 703
C 0.019522 0.001134 -0.000592
N -0.013404 -0.001380 1.316668
H 0.890920 0.009058 -0.498882
H 0.838348 -0.007289 1.943110
H -0.785177 0.019032 1.931718
H -0.990287 -0.015129 -0.392777
6
ICOND 704
C -0.014157 0.020395 0.037058
N 0.004612 -0.029750 1.319844
H 0.932418 -0.045460 -0.520197
H 0.937348 0.130601 1.813794
H -0.914927 0.133520 1.670356
H -0.850361 -0.048143 -0.473206
6
ICOND 705
C 0.005479 0.003454 0.032677
N -0.006536 -0.009512 1.311749
H 0.947488 -0.050329 -0.451305
H 0.942548 0.100208 1.724536
H -0.926861 -0.007418 1.829086
H -0.937596 0.048574 -0.446925
6
ICOND 706
C -0.016407 -0.021208 0.045836
N 0.003937 0.016602 1.301803
H 0.971388 0.107762 -0.482249
H 0.951301 -0.100058 1.977297
H -0.813236 -0.020599 1.864966
H -0.968803 0.034743 -0.723124
6
ICOND 707
C -0.011115 -0.003349 0.045582
N 0.001936 -0.011097 1.304271
H 1.048731 0.029375 -0.475327
H 0.774418 0.067963 1.798230
H -0.748539 0.060368 1.816677
H -0.969161 0.036355 -0.533952
6
ICOND 708
C -0.013971 0.004897 0.039166
N 0.007088 0.005150 1.315056
H 1.018496 -0.112480 -0.392616
H 0.814072 0.054768 1.587631
H -0.900942 -0.123422 1.816935
H -0.863757 0.051269 -0.479780
6
ICOND 709
C 0.001281 -0.025850 0.006288
N -0.011921 -0.000082 1.338264
H 1.049889 0.122525 -0.445736
H 0.967877 0.031621 1.751974
H -0.841292 0.039594 1.675489
H -1.026101 0.115198 -0.380536
6
ICOND 710
C -0.014520 -0.015605 0.031818
N 0.001913 0.024169 1.294633
H 0.938259 0.035979 -0.396060
H 0.868403 -0.111189 1.884125
H -0.817875 -0.106002 1.974649
H -0.842468 0.031212 -0.559285
6
ICOND 711
C -0.026022 -0.028843 0.028180
N 0.006396 0.008282 1.320325
H 1.047902 0.079815 -0.441150
H 0.892817 0.037852 1.838496
H -0.812979 -0.048359 1.742416
H -0.906767 0.159040 -0.549979
6
ICOND 712
C -0.011309 0.001761 0.040550
N 0.009147 0.018361 1.307984
H 0.970428 -0.008226 -0.474425
H 0.821970 -0.132356 1.819651
H -0.860153 -0.069695 1.792917
H -0.924679 -0.065809 -0.524177
6
ICOND 713
C 0.008220 0.018745 -0.002486
N -0.006037 -0.005839 1.332479
H 0.961710 -0.042349 -0.524022
H 0.878964 -0.031726 1.905235
H -0.844831 0.043460 1.935142
H -1.009843 -0.111442 -0.530318
6
ICOND 714
C -0.014161 0.004287 0.047062
N 0.007778 0.023940 1.286411
H 0.905276 -0.030238 -0.312512
H 0.794075 -0.163999 1.781994
H -0.795858 -0.104859 1.866684
H -0.842955 -0.084585 -0.500002
6
ICOND 715
C 0.015033 -0.029848 -0.025575
N -0.016829 0.007080 1.352066
H 0.857431 0.158635 -0.542916
H 0.900518 -0.033012 1.904075
H -0.790450 0.038152 1.791020
H -0.912658 0.093238 -0.363383
6
ICOND 716
C 0.000151 0.020189 0.043515
N 0.032174 -0.014494 1.324629
H 0.907005 -0.059565 -0.729650
H 0.648664 0.039155 1.895555
H -1.010931 0.061632 1.580845
H -0.993584 -0.080220 -0.399375
6
ICOND 717
C -0.016845 0.010595 0.038042
N 0.000604 -0.000095 1.300951
H 1.031758 -0.116577 -0.394629
H 0.903116 0.060163 1.833296
H -0.810667 -0.087969 1.819114
H -0.932032 0.019550 -0.516248
6
ICOND 718
C -0.006949 0.011514 0.032973
N -0.011226 -0.008723 1.306554
H 0.995996 -0.111068 -0.347847
H 0.845794 0.109458 1.762695
H -0.663603 -0.047077 1.794309
H -0.939475 0.032782 -0.485122
6
ICOND 719
C -0.006476 0.003263 0.056157
N -0.009119 -0.012144 1.302013
H 0.902697 -0.030098 -0.503728
H 0.907852 0.098057 1.822563
H -0.743797 0.023531 1.776991
H -0.862939 0.038389 -0.584736
6
ICOND 720
C -0.011583 -0.003255 0.046720
N 0.016969 0.013450 1.287073
H 0.888943 0.056549 -0.355534
H 0.761577 -0.136149 1.914689
H -0.803037 0.000508 1.790259
H -0.945351 -0.069034 -0.518386
6
ICOND 721
C 0.012265 -0.003350 0.016264
N -0.016669 -0.005904 1.322385
H 0.832589 0.051648 -0.407912
H 0.931871 0.006933 1.667974
H -0.848120 0.065608 1.986681
H -0.830781 -0.002273 -0.543720
6
ICOND 722
C 0.017091 -0.011146 0.038651
N -0.011074 -0.001844 1.297201
H 0.982830 0.041377 -0.472775
H 0.840275 0.038913 1.739337
H -0.858292 0.011225 2.033560
H -1.014445 0.066821 -0.513730
6
ICOND 723
C -0.022058 -0.008977 0.036919
N 0.022477 0.004927 1.314612
H 0.969457 0.140022 -0.542769
H 0.774721 -0.130202 1.933578
H -0.876380 0.101697 1.758382
H -0.917462 -0.073083 -0.584098
6
ICOND 724
C -0.017402 0.023409 0.056111
N 0.014083 -0.020915 1.286073
H 1.014724 0.035208 -0.462167
H 0.872563 -0.038957 1.889813
H -0.928266 0.199957 1.891798
H -0.947503 -0.184345 -0.586331
6
ICOND 725
C 0.007228 0.000977 0.014219
N -0.002603 0.020145 1.314267
H 0.879095 -0.025954 -0.568307
H 0.805649 -0.120720 1.941114
H -0.836460 -0.098358 1.884306
H -0.898179 -0.046503 -0.416941
6
ICOND 726
C -0.025832 0.007683 0.049244
N 0.027511 -0.006010 1.299097
H 0.822310 0.053075 -0.486088
H 0.721399 -0.064021 1.973234
H -0.818245 0.107687 1.791045
H -0.800132 -0.104717 -0.644275
6
ICOND 727
C -0.008753 -0.006666 0.033759
N -0.008389 0.002119 1.293208
H 0.907137 0.103371 -0.492963
H 0.857232 -0.085115 1.940645
H -0.748216 0.080487 1.845414
H -0.795381 -0.048810 -0.392980
6
ICOND 728
C 0.005204 0.016103 0.046673
N 0.013767 -0.005088 1.330019
H 0.777568 -0.089945 -0.674918
H 0.805207 0.031540 1.845573
H -0.932253 -0.020692 1.627889
H -0.903776 -0.041946 -0.563653
6
ICOND 729
C -0.000163 0.005827 0.017269
N -0.031779 -0.018849 1.324872
H 0.998500 0.011489 -0.455350
H 1.112461 0.084012 1.780156
H -0.771984 0.102631 1.822179
H -0.895484 -0.005622 -0.490479
6
ICOND 730
C -0.012214 -0.031525 0.018193
N 0.013173 0.027881 1.296882
H 0.904075 0.131878 -0.455052
H 0.671888 -0.140621 1.941271
H -0.802988 -0.073136 1.992309
H -0.810572 0.069862 -0.444117
6
ICOND 731
C 0.021270 -0.000361 -0.007693
N 0.000695 0.005616 1.342782
H 0.862299 0.122674 -0.563574
H 0.719425 -0.170993 1.853306
H -0.828826 0.111639 2.022212
H -1.015809 -0.137053 -0.607063
6
ICOND 732
C -0.015478 -0.028747 0.052955
N 0.011994 0.024746 1.301382
H 0.971925 0.134164 -0.485999
H 0.817172 -0.138560 1.803322
H -0.871698 -0.049077 1.865273
H -0.899756 0.051934 -0.624618
6
ICOND 733
C -0.001768 0.003159 0.022436
N 0.017874 0.023328 1.316476
H 1.074793 -0.037083 -0.434400
H 0.728655 -0.145036 1.792566
H -0.915592 -0.114171 1.743485
H -1.115154 -0.065446 -0.390007
6
ICOND 734
C 0.013553 -0.011883 0.053162
N 0.001315 0.008172 1.294463
H 0.828864 0.114888 -0.563525
H 0.823840 -0.107365 1.947710
H -0.837551 0.051908 1.674081
H -0.994801 -0.031477 -0.406615
6
ICOND 735
C -0.001662 -0.010091 0.037993
N 0.005620 -0.003458 1.305587
H 0.942761 0.152308 -0.403126
H 0.823230 -0.077072 1.790689
H -0.843221 0.141680 1.710661
H -0.981067 -0.048716 -0.420515
6
ICOND 736
C -0.004825 -0.003073 0.062519
N 0.005380 0.008245 1.274429
H 0.903537 0.072949 -0.410550
H 0.877968 -0.118267 1.869894
H -0.883751 0.038053 1.851336
H -0.915048 -0.070703 -0.492077
6
ICOND 737
C 0.010374 -0.031126 -0.004179
N -0.001696 0.007356 1.316451
H 0.967361 0.160223 -0.525538
H 0.796287 -0.028563 1.935164
H -0.886995 0.034223 1.997190
H -0.976606 0.102526 -0.377926
6
ICOND 738
C -0.002852 0.020417 0.013926
N 0.016491 -0.004796 1.296290
H 0.930656 -0.098405 -0.386341
H 0.743405 0.011243 2.003306
H -0.859129 -0.015271 1.949330
H -1.010108 -0.074040 -0.472852
6
ICOND 739
C 0.002942 -0.026863 0.008362
N -0.009866 0.018297 1.329604
H 0.989744 0.084693 -0.439311
H 0.875221 -0.051012 1.810432
H -0.758359 -0.072474 1.840314
H -1.004559 0.104416 -0.514627
6
ICOND 740
C -0.008429 -0.000694 0.024559
N -0.008666 -0.003045 1.333232
H 1.042861 0.070938 -0.723749
H 0.920339 -0.051208 1.852007
H -0.884140 0.085805 1.785877
H -0.858294 -0.054972 -0.460577
6
ICOND 741
C 0.020908 -0.024165 0.030359
N -0.013719 0.034995 1.320861
H 0.828853 0.103022 -0.552779
H 0.880173 -0.206435 1.853000
H -0.773159 -0.103777 1.825668
H -0.994188 0.008684 -0.569514
6
ICOND 742
C 0.000114 -0.006527 0.026730
N 0.002209 -0.011764 1.307926
H 0.901771 0.022927 -0.445154
H 0.898693 0.099914 1.809674
H -0.944174 0.044224 1.759223
H -0.888331 0.074104 -0.344423
6
ICOND 743
C -0.019234 0.021527 0.039541
N 0.008024 -0.026074 1.303904
H 1.073174 -0.080810 -0.364904
H 0.847578 0.135819 1.865720
H -0.757743 0.085728 1.799883
H -1.045484 -0.034778 -0.618048
6
ICOND 744
C -0.015278 0.020506 0.004599
N 0.008013 0.010006 1.329821
H 1.044567 -0.120382 -0.374972
H 0.861531 -0.070294 1.838899
H -0.832650 -0.092996 1.799887
H -1.002874 -0.099520 -0.525212
6
ICOND 745
C -0.008075 -0.004317 0.034712
N -0.003811 0.006600 1.302540
H 0.929570 0.038172 -0.392894
H 0.847041 -0.060860 1.744756
H -0.800565 0.001695 1.913854
H -0.826942 -0.019314 -0.506610
6
ICOND 746
C 0.002903 0.008367 0.034781
N -0.017036 -0.012724 1.323365
H 0.868436 -0.030299 -0.580037
H 1.006079 0.069932 1.752418
H -0.878845 0.043999 1.786547
H -0.793535 -0.006468 -0.489989
6
ICOND 747
C -0.005609 -0.002286 0.006825
N -0.002404 -0.001088 1.339584
H 0.964763 -0.116131 -0.530016
H 0.933182 0.148618 1.850402
H -0.870114 -0.130707 1.744284
H -0.927640 0.140557 -0.488215
6
ICOND 748
C 0.022071 -0.019512 0.016901
N -0.032189 -0.003793 1.330999
H 0.954021 0.099349 -0.660433
H 1.015801 0.042833 1.827746
H -0.821207 0.050999 1.951011
H -0.964169 0.091844 -0.542567
6
ICOND 749
C 0.010958 -0.005478 0.042183
N -0.009964 0.033662 1.278382
H 0.883886 -0.139549 -0.446732
H 0.843772 -0.051843 1.920270
H -0.785367 -0.294887 2.055955
H -0.934322 0.083798 -0.523687
6
ICOND 750
C 0.022433 -0.033760 0.055137
N -0.008507 0.014158 1.280829
H 0.807091 0.089115 -0.579796
H 0.824047 0.017358 1.901951
H -0.857864 -0.077615 2.032174
H -0.922183 0.176391 -0.536757
6
ICOND 751
C 0.018593 0.002988 0.002556
N -0.005148 0.027331 1.357897
H 0.844073 -0.082510 -0.566253
H 0.873877 -0.122884 1.674061
H -0.928624 -0.178865 1.753350
H -0.939176 -0.031066 -0.488334
6
ICOND 752
C -0.004860 -0.031016 0.048036
N -0.009358 0.014792 1.303151
H 1.013981 0.163484 -0.504261
H 0.960492 -0.085503 1.752208
H -0.884095 0.010976 1.768852
H -0.902487 0.074823 -0.424835
6
ICOND 753
C -0.017892 0.022303 0.043311
N 0.007266 -0.009108 1.299647
H 0.998520 -0.162198 -0.444332
H 0.773008 0.099233 1.844732
H -0.762541 -0.062059 1.809418
H -0.896905 -0.013977 -0.512911
6
ICOND 754
C -0.008677 0.008958 0.039495
N 0.012419 0.002288 1.324140
H 0.890600 -0.125491 -0.648121
H 0.871951 0.063381 1.918275
H -0.932284 -0.112338 1.759762
H -0.899493 0.035988 -0.627884
6
ICOND 755
C -0.027036 -0.022797 0.073133
N 0.033594 0.022842 1.284375
H 0.927292 0.011942 -0.545599
H 0.803221 -0.029902 2.017964
H -0.950526 -0.153472 1.578230
H -0.924843 0.125498 -0.496560
6
ICOND 756
C -0.014432 -0.011039 0.056472
N 0.022514 0.011303 1.304529
H 0.822537 0.062153 -0.610733
H 0.733614 -0.077537 1.848933
H -0.934182 -0.013859 1.863067
H -0.762944 0.003635 -0.628888
6
ICOND 757
C -0.006597 -0.019210 0.048894
N -0.013022 0.017863 1.311481
H 0.928896 0.039102 -0.545310
H 1.040801 -0.046979 1.781061
H -0.879470 -0.092657 1.822401
H -0.830742 0.081077 -0.592134
6
ICOND 758
C -0.008665 -0.022074 0.007665
N -0.019519 0.015736 1.337551
H 1.100097 0.126271 -0.457557
H 1.040999 -0.108556 1.703236
H -0.841163 -0.000441 1.932282
H -0.925551 0.026917 -0.583269
6
ICOND 759
C 0.005791 0.008339 0.019028
N -0.002936 -0.010401 1.311874
H 0.894434 -0.024891 -0.394948
H 0.894762 0.047767 1.761626
H -0.911380 0.041288 1.769503
H -0.905964 -0.018938 -0.320016
6
ICOND 760
C -0.005728 0.032402 0.034507
N 0.004684 -0.031953 1.308362
H 0.909985 -0.079732 -0.530314
H 0.827268 0.107158 1.857583
H -0.873250 0.147963 1.828114
H -0.860888 -0.117230 -0.474728
6
ICOND 761
C 0.026475 0.005783 0.065634
N -0.022096 0.005042 1.296314
H 0.720040 -0.124766 -0.646695
H 0.835804 0.063273 1.885267
H -0.673293 -0.133169 1.799851
H -0.890772 0.055756 -0.560993
6
ICOND 762
C -0.007591 -0.016019 0.046229
N 0.016369 0.018921 1.287787
H 0.886610 0.132845 -0.542992
H 0.842912 -0.176786 1.982952
H -0.981269 0.017090 1.856470
H -0.885299 -0.045320 -0.469461
6
ICOND 763
C -0.009448 -0.007271 0.023520
N -0.002715 0.005020 1.309911
H 1.086469 0.058356 -0.286391
H 0.867206 -0.052836 1.660580
H -0.820539 0.018692 1.916833
H -0.982916 -0.007376 -0.501070
6
ICOND 764
C 0.005071 0.007585 0.054454
N -0.001785 0.004997 1.278213
H 0.821983 -0.005604 -0.390092
H 0.863032 -0.077540 1.854089
H -0.830949 0.003221 1.875556
H -0.889640 -0.079820 -0.477512
6
ICOND 765
C -0.004452 -0.009312 0.029894
N 0.009902 0.009075 1.329448
H 0.973571 0.028832 -0.544713
H 0.949311 -0.036473 1.839333
H -0.984970 -0.035691 1.863294
H -1.022478 0.028113 -0.715315
6
ICOND 766
C 0.013192 -0.011741 0.066154
N -0.006613 0.006212 1.299620
H 0.912069 -0.051293 -0.447820
H 0.952430 0.086455 1.632110
H -0.934887 -0.121245 1.781234
H -0.994811 0.139574 -0.540220
6
ICOND 767
C 0.010957 0.006948 0.030406
N -0.020848 -0.000625 1.326288
H 0.950848 -0.000350 -0.609428
H 1.004083 -0.039372 1.839583
H -0.821793 0.027182 1.715974
H -0.973922 -0.061510 -0.465720
6
ICOND 768
C -0.000288 -0.023605 0.037846
N 0.015738 -0.000488 1.310134
H 0.876042 0.177426 -0.589625
H 0.750311 -0.039517 1.908904
H -0.913367 0.108988 1.797956
H -0.928235 0.040956 -0.500957
6
ICOND 769
C 0.001638 0.032822 0.041148
N 0.009103 -0.012155 1.307362
H 0.924891 -0.145672 -0.664047
H 0.798028 0.035946 1.918176
H -0.943039 0.005333 1.903478
H -0.925870 -0.117539 -0.542136
6
ICOND 770
C -0.020331 -0.024375 0.021591
N 0.017377 0.006983 1.311007
H 0.967465 0.032232 -0.276152
H 0.802856 0.070427 1.813153
H -0.824246 -0.079134 1.844553
H -0.945444 0.169673 -0.583854
6
ICOND 771
C -0.023913 0.006909 0.048689
N 0.024007 0.021475 1.303105
H 0.919106 -0.018884 -0.424174
H 0.879001 -0.175555 1.959458
H -0.890640 -0.073948 1.634833
H -0.956294 -0.112257 -0.585286
6
ICOND 772
C 0.018131 0.000438 0.027220
N -0.033334 -0.003998 1.323293
H 0.768402 -0.026964 -0.529379
H 1.075893 0.054887 1.820690
H -0.757148 -0.013129 1.852812
H -0.839876 0.035539 -0.584158
6
ICOND 773
C 0.007895 -0.000277 0.057864
N -0.015241 0.004953 1.300068
H 0.974917 -0.055394 -0.704334
H 0.904296 0.026945 1.867469
H -0.838716 -0.079398 1.831839
H -0.922737 0.042331 -0.477182
6
ICOND 774
C -0.012040 -0.012555 0.045883
N 0.012421 0.013313 1.320037
H 0.952443 0.096468 -0.613488
H 0.885903 -0.119487 1.951733
H -0.878687 0.010616 1.705669
H -0.988887 -0.023092 -0.660931
6
ICOND 775
C 0.033316 -0.011351 0.025500
N -0.014245 0.000376 1.310207
H 0.709340 0.011431 -0.629534
H 0.797363 0.057069 1.913693
H -0.815304 -0.030230 1.793442
H -0.890155 0.091655 -0.315341
6
ICOND 776
C -0.019362 -0.000447 0.012402
N 0.023279 -0.010623 1.352443
H 1.006282 -0.010492 -0.520680
H 0.820685 0.089534 1.828614
H -0.910163 0.025807 1.694686
H -1.009700 0.048072 -0.671241
6
ICOND 777
C 0.032202 -0.008073 0.053747
N -0.002846 0.039319 1.281333
H 0.853301 -0.010409 -0.645747
H 0.707852 -0.215958 1.992233
H -0.820794 -0.184487 1.898437
H -1.084232 -0.039329 -0.417799
6
ICOND 778
C 0.003708 0.004997 0.043305
N -0.000873 -0.032984 1.291501
H 0.946297 0.085819 -0.523571
H 0.723539 0.108569 1.862122
H -0.774328 0.232187 1.937311
H -0.927518 -0.027781 -0.465686
6
ICOND 779
C -0.000584 0.018126 0.019851
N 0.022413 -0.022689 1.330901
H 0.837468 -0.138065 -0.503939
H 0.883030 0.195761 1.811491
H -1.094050 -0.001329 1.790942
H -0.930911 0.043052 -0.556501
6
ICOND 780
C 0.026985 -0.005658 0.040667
N -0.008402 0.011429 1.301258
H 0.882786 -0.089143 -0.578919
H 0.757663 0.051996 1.812845
H -0.830263 -0.159385 1.953191
H -1.014743 0.105107 -0.481103
6
ICOND 781
C -0.015194 -0.001106 -0.027261
N 0.006216 0.011438 1.349468
H 0.982727 0.031712 -0.473754
H 0.869628 -0.108521 1.930276
H -0.867985 -0.011344 1.937744
H -0.889832 -0.057590 -0.549293
6
ICOND 782
C -0.006487 -0.037666 0.041748
N 0.023182 -0.002717 1.281751
H 0.993153 0.161163 -0.468813
H 0.769898 0.083373 2.110774
H -0.888516 0.048291 1.693808
H -1.119397 0.193402 -0.371586
6
ICOND 783
C 0.010556 0.013143 0.053557
N 0.009441 -0.010464 1.314686
H 0.830096 -0.100309 -0.682104
H 0.894072 0.099733 1.861269
H -1.031406 -0.023075 1.730583
H -0.949631 0.012547 -0.543788
6
ICOND 784
C -0.032236 -0.002584 0.038409
N 0.028434 0.004989 1.298181
H 0.930486 -0.088658 -0.497456
H 0.738138 0.077551 1.963605
H -0.895965 -0.124120 1.905790
H -0.783892 0.096669 -0.596284
6
ICOND 785
C 0.005685 -0.017293 0.055917
N -0.000313 -0.006621 1.292933
H 0.976187 0.113407 -0.585194
H 0.777000 0.033467 1.935838
H -0.774497 0.084717 1.637739
H -1.042021 0.066312 -0.348274
6
ICOND 786
C -0.008598 0.008219 0.030907
N 0.014739 0.007313 1.329609
H 0.883716 -0.044846 -0.572127
H 0.867681 -0.055282 1.844445
H -0.959636 -0.045644 1.754174
H -0.894175 -0.053703 -0.598177
6
ICOND 787
C -0.011602 0.017050 0.013677
N 0.001795 0.002759 1.317604
H 0.893089 -0.060747 -0.519327
H 0.806017 -0.061860 1.928655
H -0.788634 -0.014167 1.861284
H -0.797271 -0.104574 -0.470346
6
ICOND 788
C -0.001719 -0.057930 0.030790
N -0.000884 0.026081 1.313873
H 0.930067 0.194288 -0.574151
H 0.790703 -0.027888 1.751577
H -0.884790 -0.094696 1.986277
H -0.803233 0.255681 -0.515364
6
ICOND 789
C 0.003227 -0.008800 0.012732
N -0.001713 -0.004247 1.319243
H 0.962830 -0.013738 -0.450600
H 0.857144 0.100996 1.770619
H -0.901301 -0.031431 1.923048
H -0.933288 0.107957 -0.454314
6
ICOND 790
C -0.002940 -0.009244 0.009062
N 0.024027 -0.022467 1.323906
H 0.772157 0.085341 -0.423313
H 0.769210 0.125113 1.896423
H -0.947931 0.141401 1.927051
H -0.892274 0.070373 -0.632509
6
ICOND 791
C 0.006123 0.048238 0.046955
N 0.012825 0.002960 1.289841
H 0.995603 -0.129415 -0.496928
H 0.772904 -0.186865 1.949311
H -0.889485 0.023829 1.714875
H -1.130125 -0.323033 -0.377481
6
ICOND 792
C 0.007079 0.004430 -0.006279
N 0.012818 -0.000359 1.324265
H 0.912568 0.059215 -0.386128
H 0.756973 -0.090064 1.956925
H -0.841848 0.081865 1.790365
H -1.090080 -0.098780 -0.415835
6
ICOND 793
C -0.006051 0.006195 0.014462
N 0.012987 -0.012834 1.345888
H 0.823618 -0.077509 -0.536346
H 0.875899 0.135900 1.832768
H -0.923793 -0.014872 1.778981
H -0.884115 0.061045 -0.677481
6
ICOND 794
C -0.026654 -0.004897 0.040768
N 0.019542 -0.008207 1.309450
H 0.988993 0.074330 -0.460896
H 0.812920 0.008409 1.845482
H -0.882680 0.093087 1.763556
H -0.873387 -0.003486 -0.557156
6
ICOND 795
C 0.013175 0.013486 0.031079
N -0.006287 0.006340 1.338227
H 0.866187 -0.093107 -0.745928
H 0.796416 -0.029361 1.782842
H -0.855991 -0.075443 1.798770
H -0.876138 -0.050759 -0.529169
6
ICOND 796
C -0.010666 -0.017111 0.007126
N -0.001593 0.002388 1.323327
H 1.037087 0.032657 -0.448459
H 0.809858 0.056342 1.919415
H -0.712320 -0.035440 1.760955
H -0.985490 0.117002 -0.433164
6
ICOND 797
C -0.002615 0.001105 0.029148
N -0.003087 -0.023241 1.299956
H 0.976290 0.050783 -0.448499
H 0.789662 0.102400 1.805353
H -0.804348 0.144272 1.906606
H -0.887582 0.012304 -0.402201
6
ICOND 798
C -0.006684 -0.003363 0.024933
N 0.022048 -0.014610 1.320018
H 1.014167 0.095090 -0.605604
H 0.782932 0.021436 1.879074
H -1.037243 0.144671 1.822411
H -0.986609 -0.018158 -0.463193
6
ICOND 799
C -0.014870 -0.005881 0.040902
N 0.008003 -0.009030 1.320460
H 1.030353 0.048547 -0.503931
H 0.848674 0.048552 1.679529
H -0.923206 0.064455 1.823667
H -0.889970 0.033933 -0.562846
6
ICOND 800
C -0.011342 0.020692 0.066401
N 0.014070 -0.001033 1.284232
H 0.843784 -0.136850 -0.552964
H 0.889907 0.024672 2.005989
H -0.911643 -0.069868 1.759247
H -0.882490 -0.049972 -0.576098
6
ICOND 801
C -0.023653 -0.015005 0.054450
N 0.001099 0.002934 1.319487
H 0.920154 0.092257 -0.508888
H 1.011539 -0.025775 1.777649
H -0.866466 0.035075 1.601009
H -0.798864 0.036337 -0.581155
6
ICOND 802
C -0.026712 -0.006278 0.033303
N 0.007085 0.013098 1.324377
H 0.993983 -0.002135 -0.398508
H 0.921883 -0.050570 1.717547
H -0.856584 -0.073060 1.824831
H -0.839678 0.018533 -0.671391
6
ICOND 803
C 0.008385 0.020765 0.015361
N -0.011565 0.010963 1.337946
H 0.944741 -0.144829 -0.611902
H 0.857294 -0.052121 1.880403
H -0.740842 -0.122155 1.863656
H -1.000342 -0.080470 -0.634585
6
ICOND 804
C -0.000433 -0.003725 0.003842
N -0.000248 0.019699 1.332030
H 0.882057 0.050566 -0.487914
H 0.741555 -0.170930 1.874588
H -0.715345 -0.030564 1.878020
H -0.899655 -0.078424 -0.547766
6
ICOND 805
C -0.026331 -0.020149 0.053251
N 0.002938 0.006582 1.284367
H 1.015653 0.094345 -0.528433
H 0.905948 -0.021190 2.038483
H -0.782030 0.005298 1.833052
H -0.866880 0.070003 -0.552230
6
ICOND 806
C 0.005735 0.007416 0.024701
N -0.012433 0.003037 1.320740
H 0.995647 -0.052556 -0.680875
H 0.810268 -0.011482 1.932320
H -0.740674 -0.041321 1.931086
H -0.960785 -0.025135 -0.557111
6
ICOND 807
C 0.013444 0.002711 0.004070
N -0.010046 0.008372 1.337602
H 0.907483 -0.082726 -0.635366
H 0.938573 0.013460 1.891702
H -0.918061 -0.110775 1.832814
H -0.948483 0.031440 -0.452353
6
ICOND 808
C -0.000252 -0.009300 0.009057
N 0.000888 0.019912 1.314341
H 0.968015 0.115166 -0.458236
H 0.851225 -0.207284 1.993514
H -0.799981 0.018671 1.776729
H -1.028603 -0.092477 -0.411399
6
ICOND 809
C -0.004693 0.002009 0.048600
N 0.002251 -0.022811 1.306918
H 0.847265 0.019133 -0.490525
H 0.835479 0.128043 1.793218
H -0.816100 0.111548 1.862176
H -0.842037 0.034290 -0.631962
6
ICOND 810
C -0.013212 -0.016511 0.004909
N 0.013360 0.020524 1.316594
H 1.096088 0.088027 -0.422259
H 0.780543 -0.136238 1.914963
H -0.864653 -0.039330 1.826057
H -1.040294 -0.001027 -0.400071
6
ICOND 811
C 0.012695 -0.002013 0.018020
N -0.000395 0.005060 1.304536
H 0.887039 0.013596 -0.383072
H 0.825247 -0.037846 1.915761
H -0.804959 -0.011032 1.829272
H -1.052994 -0.011044 -0.431836
6
ICOND 812
C -0.001647 -0.011252 0.012709
N -0.010953 -0.006804 1.330831
H 1.011910 0.068079 -0.519167
H 0.849025 0.045672 1.844474
H -0.717576 0.058032 1.856309
H -0.971563 0.056722 -0.553612
6
ICOND 813
C -0.015762 -0.006668 0.001346
N -0.013081 0.000130 1.336433
H 1.025652 0.032088 -0.400183
H 0.990260 0.006558 1.751211
H -0.798779 0.010183 1.798866
H -0.847707 0.028756 -0.464431
6
ICOND 814
C 0.009966 0.002978 0.011676
N -0.013860 -0.003521 1.327755
H 0.963807 -0.067113 -0.528824
H 0.976049 0.079049 1.845087
H -0.872126 -0.049323 1.909563
H -0.993813 0.050855 -0.542784
6
ICOND 815
C -0.019079 0.029472 0.033551
N 0.013947 -0.014083 1.323630
H 0.862383 -0.186812 -0.543912
H 0.795142 0.115687 1.783468
H -0.890683 -0.044573 1.867733
H -0.733460 -0.039540 -0.627401
6
ICOND 816
C -0.029295 -0.003091 0.025559
N 0.002052 -0.021622 1.318864
H 0.981397 0.031262 -0.375613
H 0.947686 0.138853 1.844902
H -0.772523 0.101845 1.852489
H -0.836263 0.065270 -0.680499
6
ICOND 817
C 0.007579 -0.007489 0.018802
N -0.012527 -0.009588 1.307411
H 0.892504 0.040646 -0.545990
H 0.866696 0.071324 1.839825
H -0.861061 0.052050 2.068991
H -0.814334 0.058357 -0.481953
6
ICOND 818
C -0.008847 0.000419 -0.008801
N 0.004638 0.008496 1.332925
H 0.975476 -0.065876 -0.542474
H 0.792467 0.008819 1.932073
H -0.851278 -0.101229 1.833731
H -0.875770 0.035253 -0.368304
6
ICOND 819
C -0.024889 0.029283 0.019518
N 0.016497 -0.022646 1.317308
H 0.967328 -0.081614 -0.504742
H 0.841138 0.063089 1.978303
H -0.871958 0.100534 1.820817
H -0.869378 -0.116025 -0.559550
6
ICOND 820
C -0.002706 0.014552 -0.000334
N -0.010299 0.000418 1.320597
H 0.989722 -0.105089 -0.393293
H 0.893289 0.018862 1.855120
H -0.773450 -0.062949 1.935031
H -0.934239 -0.029908 -0.471363
6
ICOND 821
C 0.003333 -0.003349 0.065484
N 0.002606 -0.038201 1.297928
H 0.829892 0.013709 -0.595272
H 0.805660 0.277076 1.898627
H -0.792595 0.142438 1.617038
H -0.918858 0.137436 -0.463609
6
ICOND 822
C -0.008179 -0.019428 0.059146
N 0.005627 0.039365 1.302899
H 0.991024 0.092263 -0.528033
H 0.892454 -0.255810 1.806218
H -0.896503 -0.114238 1.724701
H -0.967777 -0.037836 -0.539705
6
ICOND 823
C -0.009638 -0.021669 0.079840
N 0.004496 0.036416 1.275254
H 0.977163 0.119684 -0.463822
H 0.780327 -0.250507 1.756426
H -0.804503 -0.081767 1.884325
H -0.900687 -0.035381 -0.576028
6
ICOND 824
C 0.019642 0.002186 0.048061
N -0.006922 -0.011903 1.302639
H 0.796665 -0.002115 -0.737544
H 0.689866 0.072751 1.887721
H -0.787784 0.049180 1.852366
H -0.836448 0.019546 -0.403755
6
ICOND 825
C -0.009227 -0.004476 -0.018931
N 0.017408 0.015474 1.353714
H 0.985144 0.011761 -0.590901
H 0.780146 -0.093984 2.034793
H -0.870844 -0.060073 1.782766
H -1.026454 -0.019402 -0.539861
6
ICOND 826
C -0.006524 -0.032264 0.001832
N -0.012747 0.019315 1.331374
H 0.991794 0.046121 -0.570275
H 0.884641 0.018093 1.960090
H -0.721334 -0.137820 1.863704
H -0.900308 0.189400 -0.503544
6
ICOND 827
C 0.000249 -0.017205 0.021095
N -0.000765 0.007155 1.302252
H 0.959438 0.063089 -0.352617
H 0.871727 -0.009951 1.794597
H -0.878442 -0.020103 1.857871
H -0.945046 0.072417 -0.374604
6
ICOND 828
C 0.010496 0.011197 0.023036
N -0.000618 -0.010129 1.311210
H 0.923518 -0.114940 -0.546812
H 0.738376 0.125658 1.831659
H -0.838880 -0.047303 1.939203
H -0.939404 0.044004 -0.446395
6
ICOND 829
C 0.015209 -0.005481 0.003555
N -0.002506 -0.011266 1.332160
H 0.874608 -0.060450 -0.649855
H 0.904170 0.180462 1.991876
H -0.937379 -0.044519 1.831039
H -0.987676 0.146299 -0.454520
6
ICOND 830
C -0.031255 0.017976 0.017727
N 0.013104 -0.002625 1.333696
H 1.036486 -0.015615 -0.475269
H 0.837745 -0.078708 1.833462
H -0.819517 0.058002 1.828491
H -0.864634 -0.141246 -0.658234
6
ICOND 831
C 0.005789 0.010123 0.042594
N 0.011737 -0.028282 1.303902
H 0.849235 0.031765 -0.493496
H 0.764451 0.101474 1.849806
H -0.881659 0.174821 1.802496
H -0.964026 -0.035638 -0.512469
6
ICOND 832
C 0.012109 -0.019805 0.015777
N -0.001839 0.011056 1.331160
H 0.815813 0.078390 -0.610883
H 0.830732 -0.037719 1.892157
H -0.855220 -0.027178 1.839219
H -0.909948 0.068703 -0.533583
6
ICOND 833
C -0.013489 0.006193 0.031439
N 0.014726 0.018317 1.285251
H 0.970389 -0.026764 -0.499613
H 0.815459 -0.140047 2.040839
H -0.923099 -0.073582 1.929726
H -0.906745 -0.087843 -0.432648
6
ICOND 834
C -0.026239 -0.017838 0.029682
N 0.004019 0.029920 1.320380
H 0.973669 -0.057887 -0.466866
H 0.875071 -0.035601 1.838827
H -0.782229 -0.237303 1.728447
H -0.809929 0.127469 -0.529288
6
ICOND 835
C -0.004229 -0.006256 -0.009844
N 0.002663 0.028906 1.331411
H 0.911963 -0.110514 -0.432776
H 0.877105 -0.044793 1.883298
H -0.884623 -0.248730 2.028292
H -0.891092 0.076896 -0.590320
6
ICOND 836
C -0.008074 0.005782 0.040933
N -0.003336 -0.008170 1.311320
H 0.957714 -0.021054 -0.687702
H 0.894841 0.044042 1.913038
H -0.881085 0.028003 1.921440
H -0.828982 -0.006315 -0.583733
6
ICOND 837
C -0.019682 0.012085 0.058325
N 0.016704 -0.002566 1.302703
H 0.967372 -0.024959 -0.579270
H 0.797999 -0.031501 1.829521
H -0.916436 0.026186 1.757132
H -0.846681 -0.077971 -0.531691
6
ICOND 838
C 0.017122 0.012839 0.052158
N 0.005838 -0.000415 1.301382
H 0.871600 -0.072761 -0.520127
H 0.797189 0.000484 1.804264
H -0.906715 -0.030954 1.787458
H -1.047061 -0.043871 -0.504122
6
ICOND 839
C 0.046104 -0.017265 0.036528
N -0.019459 -0.007663 1.307423
H 0.760889 0.105654 -0.712231
H 0.980657 0.049111 1.929137
H -0.991169 0.080187 1.894132
H -1.028953 0.077095 -0.441404
6
ICOND 840
C 0.045359 0.005124 0.024306
N -0.024465 -0.022024 1.310237
H 0.851176 0.016567 -0.696108
H 0.896980 0.105456 1.960168
H -0.858720 0.117213 1.854724
H -1.089593 0.005763 -0.342724
6
ICOND 841
C -0.003117 0.006246 0.054163
N -0.013551 -0.020836 1.298628
H 0.924259 -0.067216 -0.577398
H 0.833810 0.181078 1.821112
H -0.714549 0.025777 1.897607
H -0.818118 0.075501 -0.559454
6
ICOND 842
C -0.005744 0.013278 0.036061
N 0.013453 0.010014 1.315726
H 0.967480 -0.032630 -0.607240
H 0.846913 -0.119881 1.824843
H -1.030530 -0.023824 1.651146
H -0.902396 -0.120902 -0.308906
6
ICOND 843
C -0.015645 0.006451 0.019649
N 0.022785 -0.012832 1.318022
H 0.818662 -0.011322 -0.476885
H 0.792193 0.062232 1.994905
H -0.875260 0.058074 1.864083
H -0.865894 -0.007501 -0.658759
6
ICOND 844
C -0.010940 0.008024 0.018068
N 0.018349 -0.007497 1.351631
H 0.878251 -0.079018 -0.615774
H 0.853717 0.088091 1.764223
H -1.015996 -0.029379 1.655569
H -0.840666 0.028932 -0.528823
6
ICOND 845
C 0.023743 -0.006108 0.010716
N -0.020529 -0.001173 1.342982
H 0.858563 0.051239 -0.524370
H 1.019903 -0.008608 1.710768
H -0.903656 0.037825 1.827479
H -0.972274 0.008568 -0.530965
6
ICOND 846
C 0.041604 0.004260 0.025495
N -0.033751 0.007187 1.312135
H 0.835904 0.100982 -0.585911
H 0.964429 -0.187902 1.817684
H -0.819634 0.099101 1.901393
H -1.007127 -0.162762 -0.397627
6
ICOND 847
C 0.003548 0.008480 0.042134
N -0.017304 0.012926 1.295153
H 1.006503 -0.061058 -0.411696
H 0.918229 -0.079072 1.651129
H -0.846848 -0.082865 2.004330
H -0.879697 -0.057573 -0.470392
6
ICOND 848
C 0.016896 -0.007547 0.010959
N -0.005540 0.012564 1.342826
H 0.763431 0.110583 -0.591330
H 0.851414 -0.161380 1.785445
H -0.874560 0.046931 1.797089
H -0.864499 -0.080847 -0.509014
6
ICOND 849
C -0.010889 -0.017617 0.033403
N 0.020193 0.008204 1.295861
H 0.948043 0.068677 -0.395631
H 0.791027 -0.020848 1.878108
H -0.940471 -0.019354 1.860273
H -0.949516 0.067304 -0.475257
6
ICOND 850
C -0.007605 -0.017013 0.040045
N 0.001394 -0.007068 1.289777
H 0.953685 0.071904 -0.451199
H 0.973198 0.080018 1.942180
H -0.930526 0.042200 1.753134
H -0.925176 0.106656 -0.371172
6
ICOND 851
C -0.033438 0.011887 0.030155
N 0.014162 -0.012928 1.299908
H 1.112525 0.017057 -0.356641
H 0.760945 -0.002541 1.766971
H -0.827040 0.109081 1.974211
H -0.845065 -0.085519 -0.534609
6
ICOND 852
C 0.027512 -0.001074 0.008262
N -0.024171 -0.012435 1.326889
H 0.887853 0.022986 -0.652667
H 0.902818 0.069928 1.831036
H -0.866434 0.066582 1.863734
H -0.915973 0.026060 -0.306370
6
ICOND 853
C 0.020717 0.001578 0.042884
N 0.002708 0.016566 1.328360
H 0.777164 0.018400 -0.737150
H 0.841537 -0.147444 1.861175
H -0.955775 -0.034818 1.639506
H -0.947224 -0.085099 -0.460476
6
ICOND 854
C 0.011061 0.005349 0.006149
N 0.007897 0.014894 1.311648
H 0.804431 -0.068172 -0.461759
H 0.764107 -0.065366 1.986791
H -0.850215 -0.109193 1.933393
H -0.959748 -0.027897 -0.485770
6
ICOND 855
C 0.027490 -0.007123 0.074945
N -0.017538 0.000093 1.290388
H 0.901012 -0.018821 -0.736621
H 0.902427 0.065114 1.825268
H -0.900800 -0.046734 1.673069
H -0.986274 0.083963 -0.312807
6
ICOND 856
C 0.007141 -0.003974 0.037832
N -0.014500 0.007413 1.331231
H 0.849469 -0.002461 -0.668280
H 0.978079 -0.024580 1.789084
H -0.873100 -0.044244 1.815920
H -0.838003 0.015609 -0.613413
6
ICOND 857
C 0.008443 -0.000669 0.050262
N -0.010161 -0.012966 1.303905
H 0.841467 0.028031 -0.593017
H 0.895863 0.065630 1.934758
H -0.765328 0.075488 1.736432
H -0.931339 0.018972 -0.523176
6
ICOND 858
C -0.023944 -0.007044 0.058856
N 0.022742 0.013019 1.292978
H 0.999740 0.155407 -0.409929
H 0.789595 -0.216575 1.757279
H -0.934326 0.095874 1.721612
H -0.885890 -0.131721 -0.464477
6
ICOND 859
C 0.005540 -0.025593 0.095429
N -0.006088 -0.008616 1.266023
H 1.032304 0.158509 -0.603086
H 0.840390 0.051300 1.732356
H -0.897064 0.110898 1.901539
H -0.957002 0.103741 -0.487263
6
ICOND 860
C 0.020300 -0.005804 0.035717
N 0.010545 0.042232 1.320514
H 0.710576 0.078535 -0.609906
H 0.828553 -0.347817 1.942037
H -0.937699 -0.090099 1.740312
H -0.989653 -0.158298 -0.575044
6
ICOND 861
C 0.010567 0.014567 0.043756
N -0.006930 0.018626 1.316158
H 0.896384 -0.120235 -0.600287
H 0.907033 -0.093772 1.760095
H -0.915149 -0.145966 1.835759
H -0.917792 -0.072272 -0.533365
6
ICOND 862
C 0.002224 0.019870 0.022870
N 0.004923 0.012412 1.306043
H 0.923064 -0.095365 -0.450625
H 0.831706 -0.110526 1.819046
H -0.935466 -0.076883 1.830806
H -0.914185 -0.126281 -0.347799
6
ICOND 863
C -0.014726 -0.012678 0.011746
N 0.023798 0.010234 1.319160
H 0.857076 0.061651 -0.427370
H 0.722061 -0.058998 1.938880
H -0.854465 -0.016459 1.809795
H -0.879981 0.022559 -0.519667
6
ICOND 864
C -0.012838 -0.029097 0.027419
N 0.002288 0.002683 1.300727
H 1.008640 0.054713 -0.451380
H 0.866402 0.106461 1.896319
H -0.848040 -0.056124 1.915661
H -0.905924 0.204123 -0.489464
6
ICOND 865
C 0.001278 -0.010762 0.014166
N -0.001924 0.005844 1.316182
H 0.927265 0.046720 -0.435644
H 0.744591 -0.023825 1.778941
H -0.769011 -0.009681 2.051668
H -0.891331 0.033723 -0.580766
6
ICOND 866
C -0.009897 0.007946 0.047066
N -0.003813 0.004586 1.314252
H 0.943248 -0.102044 -0.469961
H 0.842649 0.028024 1.675117
H -0.783951 -0.098909 1.868543
H -0.831125 0.014602 -0.624410
6
ICOND 867
C -0.004557 -0.009141 0.038120
N -0.007825 -0.004120 1.306797
H 0.962650 0.153345 -0.453650
H 0.918339 -0.079549 1.780540
H -0.819794 0.148679 1.914945
H -0.898217 -0.056388 -0.582448
6
ICOND 868
C 0.002543 0.005457 0.046854
N -0.011569 0.014813 1.302253
H 1.052751 0.125562 -0.459349
H 0.957501 -0.276302 1.751901
H -0.852492 0.102315 1.777488
H -1.027295 -0.222373 -0.451519
6
ICOND 869
C -0.009426 -0.005677 0.044690
N 0.012329 0.021035 1.299509
H 0.958971 -0.026632 -0.428569
H 0.784393 -0.083979 1.846109
H -0.835219 -0.126556 1.713669
H -0.967214 0.012495 -0.448785
6
ICOND 870
C -0.017423 0.032340 -0.008778
N -0.012500 -0.021954 1.346197
H 1.010911 -0.171295 -0.540609
H 0.971086 0.136337 1.879557
H -0.784510 0.011531 1.939322
H -0.816358 -0.056604 -0.607920
6
ICOND 871
C 0.002137 -0.024513 0.020432
N -0.006440 -0.001942 1.314687
H 0.988035 0.227002 -0.477293
H 0.854176 -0.077397 1.767364
H -0.853700 0.164947 2.023558
H -0.924473 0.004297 -0.553256
6
ICOND 872
C -0.009682 0.007611 0.069383
N 0.008361 0.008456 1.289331
H 0.956443 -0.092445 -0.444519
H 0.843265 -0.007716 1.811645
H -0.828123 -0.103836 1.748740
H -0.972475 -0.004115 -0.586054
6
ICOND 873
C -0.024578 -0.011773 0.011397
N 0.023162 -0.005938 1.333863
H 1.085898 0.091665 -0.409159
H 0.801069 0.017185 1.846791
H -0.880048 0.078634 1.690461
H -1.036092 0.035197 -0.526597
6
ICOND 874
C 0.013065 0.000777 0.017332
N -0.008517 0.004227 1.326650
H 0.916899 -0.006250 -0.532545
H 0.808838 -0.028094 1.649672
H -0.900066 -0.019433 1.941400
H -0.862895 -0.014210 -0.427471
6
ICOND 875
C 0.024511 -0.019355 0.008443
N -0.013864 -0.009364 1.303687
H 0.875520 0.103518 -0.562056
H 0.765754 0.076776 1.976728
H -0.777236 0.076482 1.840240
H -0.963246 0.103788 -0.198962
6
ICOND 876
C 0.022830 0.025581 0.023860
N -0.006393 -0.012423 1.326278
H 0.882893 -0.119530 -0.605508
H 0.816478 0.055443 1.826884
H -0.858172 0.008417 1.745250
H -1.024205 -0.076315 -0.408132
6
ICOND 877
C 0.014341 0.001722 0.029827
N -0.017487 -0.001785 1.320074
H 0.958624 -0.006141 -0.589890
H 0.846009 0.008380 1.750432
H -0.793685 0.006112 1.847021
H -0.938729 -0.004056 -0.433921
6
ICOND 878
C -0.041669 0.005686 -0.005519
N 0.002419 0.007726 1.341789
H 1.072566 0.069981 -0.340139
H 1.083981 -0.167053 1.947307
H -0.794937 0.068584 1.820568
H -0.899070 -0.146560 -0.734946
6
ICOND 879
C 0.012729 0.016295 0.018538
N -0.005398 -0.001705 1.320210
H 0.969047 -0.088964 -0.641878
H 0.774868 0.005282 1.891805
H -0.836646 -0.031293 1.774223
H -0.983827 -0.055352 -0.317976
6
ICOND 880
C -0.020580 -0.008646 0.049368
N 0.012901 -0.019679 1.300356
H 0.924238 0.053228 -0.387734
H 0.931007 0.136501 1.807870
H -0.927117 0.098439 1.733351
H -0.862329 0.088204 -0.538537
6
ICOND 881
C -0.003146 -0.045222 0.031140
N 0.009564 -0.005616 1.306315
H 0.899915 0.146148 -0.327485
H 0.965684 0.168301 1.802549
H -0.980938 0.015066 1.792566
H -0.980096 0.286965 -0.518446
6
ICOND 882
C -0.001617 -0.010944 0.049694
N 0.022626 0.018253 1.285612
H 0.885094 0.007394 -0.471070
H 0.733465 -0.067796 2.002127
H -0.882055 -0.098519 1.782319
H -1.031616 0.035627 -0.497464
6
ICOND 883
C 0.015294 0.010972 0.061603
N -0.010737 -0.005559 1.294433
H 0.853837 -0.042835 -0.455561
H 0.860981 0.016236 1.684911
H -0.819026 0.013631 1.836376
H -0.928714 -0.040441 -0.514168
6
ICOND 884
C -0.016490 0.006203 0.034726
N 0.014086 -0.016576 1.315091
H 1.021996 -0.063425 -0.604037
H 0.837861 0.147041 1.928792
H -0.918939 0.014166 1.921591
H -0.940293 0.058682 -0.661788
6
ICOND 885
C -0.016996 -0.008343 0.030633
N 0.015988 0.008147 1.331302
H 0.850937 -0.002736 -0.517826
H 0.840874 -0.001703 1.800085
H -0.905599 -0.063124 1.771540
H -0.805994 0.053706 -0.645744
6
ICOND 886
C -0.003299 0.007893 0.085512
N -0.013437 -0.018070 1.282203
H 0.933734 0.037994 -0.522100
H 0.956028 0.036511 1.722908
H -0.815362 0.136141 1.761124
H -0.848425 -0.053562 -0.525115
6
ICOND 887
C -0.020717 -0.001966 0.037191
N 0.015620 0.008367 1.315893
H 0.777066 -0.014619 -0.398324
H 0.818263 -0.030874 1.842161
H -0.796966 -0.053659 1.755029
H -0.768727 0.006319 -0.654808
6
ICOND 888
C 0.009630 0.030501 0.040148
N 0.000785 -0.017253 1.313873
H 0.867415 -0.068351 -0.675196
H 0.730559 0.002700 1.865653
H -0.826087 0.099673 1.885435
H -0.897448 -0.157464 -0.538974
6
ICOND 889
C -0.016590 -0.014228 0.020603
N 0.002451 0.016406 1.323478
H 1.012881 0.027882 -0.452033
H 0.997994 -0.056129 1.798566
H -0.956355 -0.081417 1.810933
H -0.891036 0.051121 -0.521285
6
ICOND 890
C -0.017090 0.004228 0.037701
N 0.021254 0.006055 1.298889
H 0.946232 -0.060344 -0.473021
H 0.722993 -0.004126 1.905461
H -0.873383 -0.072431 1.771145
H -0.887670 0.002425 -0.429329
6
ICOND 891
C 0.006131 0.000327 -0.009097
N 0.001262 -0.019067 1.350931
H 0.857916 0.033939 -0.524222
H 0.854137 0.096100 1.883256
H -0.843659 0.107851 1.803351
H -0.958923 0.023140 -0.554012
6
ICOND 892
C 0.006483 -0.003245 0.063096
N -0.004786 0.025610 1.311943
H 0.866782 0.045041 -0.552918
H 0.949867 -0.209860 1.712453
H -0.906252 -0.056448 1.667758
H -0.921095 -0.095939 -0.536797
6
ICOND 893
C -0.018278 0.031252 0.053828
N 0.022312 -0.015093 1.303969
H 0.904835 -0.157671 -0.414067
H 0.799622 0.079807 1.721512
H -0.943813 -0.002692 1.879782
H -0.853027 -0.081857 -0.675592
6
ICOND 894
C 0.006545 -0.028410 0.027781
N 0.000363 0.012775 1.311922
H 0.937862 0.134223 -0.458474
H 0.919976 -0.055940 1.842334
H -0.924083 -0.004006 1.696474
H -1.016729 0.086498 -0.369052
6
ICOND 895
C 0.007784 -0.030480 0.034608
N -0.004518 0.008988 1.320693
H 0.940409 0.081803 -0.574256
H 0.824234 0.041102 1.794295
H -0.824912 -0.054731 1.756572
H -0.969634 0.169870 -0.468500
6
ICOND 896
C 0.004713 -0.003686 0.083646
N -0.002103 -0.002617 1.263304
H 0.908235 0.076483 -0.547552
H 0.751750 -0.041247 1.933079
H -0.722646 0.079389 1.927966
H -0.964246 -0.034376 -0.591883
6
ICOND 897
C -0.024556 0.018762 0.006705
N 0.004976 -0.027221 1.323591
H 1.124108 -0.095490 -0.421845
H 0.908856 0.177502 1.845590
H -0.874240 0.063891 1.926154
H -0.935483 0.008914 -0.549808
6
ICOND 898
C -0.024789 -0.003466 0.038139
N 0.009511 0.002312 1.301247
H 0.973462 0.106693 -0.453568
H 0.761686 -0.110448 1.862432
H -0.762172 0.095036 1.928619
H -0.809965 -0.082139 -0.601214
6
ICOND 899
C 0.011045 0.009690 0.005054
N 0.009666 -0.019121 1.333206
H 0.879500 0.024897 -0.573379
H 0.794108 0.046787 1.874001
H -0.962868 0.132267 1.830864
H -0.976553 -0.053655 -0.445339
6
ICOND 900
C 0.003460 -0.006464 0.012743
N -0.011403 0.008018 1.345330
H 0.992256 0.013565 -0.545802
H 0.919248 -0.030479 1.645955
H -0.889996 -0.038078 1.809722
H -0.904271 0.020547 -0.483736
6
ICOND 901
C -0.013416 -0.010846 0.037846
N -0.006830 0.004040 1.302402
H 0.941720 0.023193 -0.320636
H 0.817520 0.015095 1.691202
H -0.693888 -0.028991 1.906491
H -0.810710 0.063706 -0.553352
6
ICOND 902
C 0.005440 -0.018676 -0.013952
N -0.014174 0.026348 1.349742
H 0.938766 0.107474 -0.660454
H 0.932519 -0.184904 1.867579
H -0.895910 -0.047344 2.024709
H -0.843219 -0.018939 -0.549139
6
ICOND 903
C 0.020925 0.011019 -0.001995
N -0.014275 0.001262 1.326826
H 0.961997 -0.078057 -0.481458
H 0.944131 0.005939 1.825052
H -0.907944 -0.049471 2.057283
H -1.048994 -0.027137 -0.542141
6
ICOND 904
C -0.013235 0.013478 0.067005
N 0.005482 -0.019930 1.285378
H 0.938383 -0.029065 -0.498447
H 0.892661 0.087158 1.869022
H -0.869710 0.090287 1.722102
H -0.879907 -0.031940 -0.479633
6
ICOND 905
C 0.012810 0.000159 0.039216
N -0.002044 0.010316 1.325577
H 0.834805 0.024285 -0.612247
H 0.868405 -0.100533 1.819470
H -0.869820 -0.010721 1.820047
H -0.957511 -0.058249 -0.641871
6
ICOND 906
C -0.006257 -0.004917 -0.005022
N 0.008979 -0.013610 1.336164
H 1.002876 -0.038501 -0.564776
H 0.730877 0.169604 1.883732
H -0.860786 -0.010012 1.873424
H -0.923227 0.126560 -0.427354
6
ICOND 907
C -0.024254 -0.024738 0.019793
N 0.018887 0.000762 1.314479
H 0.991358 0.042808 -0.536158
H 0.797514 0.105315 2.031286
H -0.854060 -0.046194 1.838420
H -0.908441 0.182039 -0.562686
6
ICOND 908
C 0.018923 0.004627 0.016387
N -0.009766 -0.035740 1.327626
H 0.908262 0.050407 -0.591065
H 0.931480 0.168983 1.877596
H -0.903868 0.202389 1.756747
H -1.025493 0.019708 -0.414539
6
ICOND 909
C -0.002698 -0.004525 0.039173
N 0.012766 0.002944 1.320206
H 0.857088 0.036564 -0.506594
H 0.839648 -0.031873 1.869291
H -0.868726 0.012561 1.752216
H -0.973250 -0.004269 -0.654372
6
ICOND 910
C -0.009720 0.029806 0.045813
N -0.002882 -0.006579 1.311660
H 0.820027 -0.209603 -0.566168
H 0.888877 0.085189 1.933398
H -0.743098 -0.095598 1.807450
H -0.810023 -0.043467 -0.674466
6
ICOND 911
C 0.022170 0.024916 0.028029
N -0.030981 -0.005192 1.325927
H 0.933097 -0.156443 -0.606677
H 0.991260 0.048601 1.765689
H -0.796113 -0.060614 1.760213
H -0.961761 -0.056079 -0.405491
6
ICOND 912
C -0.021859 -0.000201 0.043353
N 0.018377 -0.004174 1.310650
H 0.982426 -0.050758 -0.425568
H 0.800286 0.086094 1.769848
H -0.876346 -0.040702 1.916904
H -0.901432 0.065762 -0.717644
6
ICOND 913
C -0.006031 0.001468 0.053809
N -0.005346 0.011549 1.301706
H 0.989784 -0.047219 -0.562546
H 0.840568 -0.039793 1.733036
H -0.845176 -0.088277 1.775489
H -0.839091 -0.002663 -0.402669
6
ICOND 914
C -0.009198 0.016376 0.001666
N 0.004479 -0.018635 1.337530
H 0.974402 -0.100719 -0.489016
H 0.792373 0.137523 1.876826
H -0.771425 0.018118 1.907057
H -0.948062 0.009010 -0.628450
6
ICOND 915
C 0.010943 0.010415 0.055364
N -0.016871 0.016055 1.309502
H 1.024345 -0.033178 -0.642671
H 0.980768 -0.143887 1.738463
H -0.915406 -0.056931 1.819343
H -0.985591 -0.113086 -0.498669
6
ICOND 916
C 0.029065 -0.009388 0.026325
N -0.010480 0.009552 1.317513
H 0.919483 0.137013 -0.543549
H 0.828651 -0.157089 1.838698
H -0.818503 0.080012 1.856163
H -1.130096 -0.080873 -0.500374
6
ICOND 917
C 0.015902 -0.005388 0.008357
N -0.026075 0.005031 1.336393
H 0.988497 0.123768 -0.588859
H 0.892706 -0.136071 1.678599
H -0.811998 0.096682 2.013640
H -0.896245 -0.090122 -0.500835
6
ICOND 918
C -0.003331 0.017377 0.060964
N 0.003684 0.007527 1.293607
H 0.982528 -0.059895 -0.609131
H 0.877235 -0.098653 1.841979
H -0.951596 -0.029492 1.765419
H -0.919694 -0.123451 -0.427622
6
ICOND 919
C 0.032493 -0.004452 0.035259
N -0.014009 -0.027281 1.314523
H 0.749545 0.076910 -0.706630
H 0.942513 0.137937 1.903634
H -0.952897 0.167265 2.006358
H -0.931410 0.049958 -0.617269
6
ICOND 920
C 0.013292 -0.029733 0.017039
N -0.003387 0.017481 1.319673
H 0.908371 0.204236 -0.666208
H 0.768673 -0.157068 1.986837
H -0.809768 0.050155 1.807536
H -0.978478 0.013806 -0.396679
6
ICOND 921
C 0.014108 0.012781 -0.008988
N 0.009740 0.003560 1.346851
H 0.885106 0.024144 -0.608610
H 0.757249 -0.132765 1.871044
H -0.956549 0.059750 1.824337
H -0.989117 -0.152770 -0.423007
6
ICOND 922
C 0.016879 -0.027896 0.015429
N -0.014931 -0.002212 1.322113
H 1.024996 0.125741 -0.403032
H 0.891042 0.056216 1.707937
H -0.815695 0.043440 1.803053
H -1.093852 0.137483 -0.391198
6
ICOND 923
C 0.003927 -0.006489 0.039531
N 0.008144 -0.002289 1.293493
H 0.889156 0.062048 -0.534473
H 0.780889 -0.010038 1.970868
H -0.864533 0.052284 1.865752
H -0.965422 0.004777 -0.474719
6
ICOND 924
C -0.041650 -0.010465 0.020489
N 0.030542 -0.012432 1.323878
H 0.900346 0.087701 -0.397290
H 0.821067 0.059197 2.010156
H -0.810697 0.102831 1.728194
H -0.839164 0.047603 -0.709072
6
ICOND 925
C -0.006306 -0.019957 -0.002585
N -0.007937 0.015723 1.339719
H 0.927071 0.051407 -0.578873
H 0.798489 -0.040456 1.860416
H -0.742718 -0.074160 1.925160
H -0.797469 0.082380 -0.520076
6
ICOND 926
C -0.000546 -0.004046 0.057848
N 0.014875 0.006908 1.275011
H 0.921503 -0.021553 -0.355523
H 0.786449 0.000235 1.804392
H -0.930661 -0.063436 1.855629
H -0.977463 0.036958 -0.438368
6
ICOND 927
C -0.018822 -0.019342 0.048852
N 0.024462 -0.021785 1.307461
H 0.930696 0.133002 -0.491036
H 0.732970 0.132624 1.889877
H -0.844048 0.154040 1.637097
H -0.935390 0.113321 -0.513567
6
ICOND 928
C -0.023185 -0.004561 0.010709
N 0.026184 -0.001445 1.345904
H 0.933729 0.016794 -0.514675
H 0.806848 0.020965 1.857625
H -0.935185 0.006969 1.664777
H -0.893141 0.029656 -0.565339
6
ICOND 929
C 0.024001 0.005631 0.042967
N -0.020165 0.007736 1.338129
H 0.899760 0.015786 -0.686753
H 0.973588 -0.107796 1.637646
H -0.921616 0.009370 1.793390
H -0.957326 -0.091886 -0.577948
6
ICOND 930
C -0.003895 0.022193 0.017036
N 0.013983 -0.010853 1.316903
H 0.971901 -0.145911 -0.530624
H 0.611368 0.094568 1.991433
H -0.694585 -0.038355 1.885188
H -1.036589 -0.023759 -0.575992
6
ICOND 931
C -0.000775 0.010525 0.045694
N 0.004970 -0.001522 1.281966
H 0.996566 -0.088061 -0.524556
H 0.761576 0.039694 2.039639
H -0.773606 -0.051972 1.836949
H -1.044364 -0.003823 -0.437825
6
ICOND 932
C 0.005496 -0.016520 0.062575
N -0.019678 0.007890 1.312902
H 0.859606 0.006713 -0.654634
H 0.918296 0.041830 1.801970
H -0.719870 -0.081646 1.724314
H -0.850054 0.120183 -0.588270
6
ICOND 933
C 0.003180 0.011965 0.016972
N 0.013262 0.001009 1.311633
H 0.816356 -0.061531 -0.481161
H 0.858487 -0.016271 2.093984
H -0.868224 -0.027122 1.808047
H -1.028756 -0.051559 -0.576879
6
ICOND 934
C -0.000258 0.000273 0.036437
N -0.007150 0.005533 1.302723
H 0.937742 -0.047896 -0.345075
H 0.914012 0.011178 1.787978
H -0.776080 -0.071359 1.830066
H -0.973262 0.027953 -0.536938
6
ICOND 935
C -0.015075 0.020098 0.005689
N 0.015602 -0.013673 1.349594
H 0.888337 -0.103555 -0.573818
H 0.827734 0.081779 1.819436
H -0.938223 0.010428 1.825750
H -0.815135 -0.037986 -0.620468
6
ICOND 936
C 0.003784 0.027784 0.054749
N -0.003641 -0.004194 1.285362
H 0.760817 -0.188381 -0.552058
H 0.855120 0.058052 1.926927
H -0.830745 -0.088585 1.904612
H -0.779658 -0.053627 -0.520274
6
ICOND 937
C -0.000099 0.005568 -0.009793
N 0.009280 0.014800 1.341458
H 0.947909 -0.051630 -0.610758
H 0.904520 -0.084101 2.073481
H -0.943138 -0.090053 1.789976
H -1.037063 -0.046162 -0.504417
6
ICOND 938
C -0.000319 -0.008302 0.061432
N -0.009624 0.014732 1.277870
H 0.893014 0.071648 -0.375791
H 0.928031 -0.129568 1.808637
H -0.789627 -0.006111 1.865540
H -0.893904 -0.041805 -0.514649
6
ICOND 939
C -0.020262 0.004452 0.041937
N 0.024910 -0.003585 1.313947
H 0.954090 -0.096998 -0.511683
H 0.794829 0.102647 1.869977
H -0.931953 -0.076248 1.735058
H -0.921812 0.067400 -0.578757
6
ICOND 940
C 0.004821 0.008778 0.024325
N -0.009993 -0.032210 1.319400
H 0.975437 0.016179 -0.461918
H 0.784510 0.154825 1.696360
H -0.755205 0.167331 1.881864
H -0.923303 0.004687 -0.467769
6
ICOND 941
C 0.001343 0.005285 0.060646
N -0.006016 -0.011124 1.294325
H 1.026978 0.059759 -0.582328
H 0.766292 -0.019809 1.798364
H -0.754712 0.124935 1.886798
H -0.970962 -0.073254 -0.538368
6
ICOND 942
C -0.002686 0.007463 0.005753
N 0.006798 0.005949 1.329884
H 1.005054 0.050736 -0.527816
H 0.741643 -0.144816 1.838731
H -0.847405 0.060604 1.846798
H -0.961765 -0.138037 -0.433725
6
ICOND 943
C 0.011467 -0.008293 0.017582
N 0.000124 -0.014453 1.320029
H 0.888324 0.065141 -0.407091
H 0.806124 0.084263 1.756078
H -0.841657 0.093575 1.934946
H -0.991053 0.056584 -0.563857
6
ICOND 944
C 0.014870 -0.019978 -0.036892
N -0.013703 0.019536 1.353665
H 0.920921 0.030747 -0.508163
H 0.877914 -0.044866 1.889611
H -0.827236 -0.110661 1.843485
H -0.958257 0.091210 -0.323599
6
ICOND 945
C -0.023414 -0.008866 0.040896
N 0.002089 -0.009474 1.319689
H 0.945663 0.019115 -0.378538
H 0.945488 0.102708 1.710563
H -0.812055 0.023192 1.918219
H -0.829329 0.092186 -0.803045
6
ICOND 946
C -0.006719 0.003858 0.055958
N 0.012622 -0.002942 1.307470
H 0.838896 0.008863 -0.570587
H 0.868983 -0.013325 1.897689
H -0.906074 0.034440 1.735409
H -0.897180 -0.035031 -0.624877
6
ICOND 947
C 0.017572 -0.006586 0.043838
N 0.000675 -0.004748 1.311420
H 0.879165 -0.007535 -0.647368
H 0.727023 0.083722 1.784697
H -0.877993 -0.014792 1.898866
H -0.946801 0.082995 -0.509127
6
ICOND 948
C 0.032439 0.015883 0.059649
N -0.015033 -0.020884 1.291169
H 0.820397 -0.012559 -0.600525
H 0.855064 0.060662 1.784144
H -0.878033 0.120486 1.895257
H -0.974796 -0.067535 -0.458695
6
ICOND 949
C 0.005613 0.004451 0.064355
N -0.007182 -0.015508 1.303916
H 0.929962 0.106690 -0.673384
H 0.773387 -0.034506 1.767512
H -0.785902 0.189003 1.892588
H -0.884487 -0.098706 -0.599683
6
ICOND 950
C 0.005504 0.017207 0.007693
N 0.004373 0.005462 1.321021
H 0.968844 -0.061330 -0.494764
H 0.832917 -0.081375 1.936801
H -0.877113 -0.024119 1.751519
H -1.050944 -0.113946 -0.369521
6
ICOND 951
C -0.004665 0.019144 0.015209
N 0.013250 0.005731 1.306677
H 1.017931 -0.051289 -0.430222
H 0.845871 -0.106524 1.845625
H -1.017477 -0.007128 1.804721
H -0.974889 -0.142630 -0.286286
6
ICOND 952
C 0.007497 -0.004405 0.020845
N -0.013827 0.016623 1.317920
H 0.952182 -0.139629 -0.613142
H 0.793082 0.062164 1.846574
H -0.757332 -0.228758 1.962453
H -0.885080 0.127716 -0.485361
6
ICOND 953
C -0.005462 0.007200 0.045001
N 0.003737 0.004331 1.278325
H 0.943785 0.021450 -0.395997
H 0.851732 -0.099809 1.902996
H -0.860690 0.033696 1.908529
H -0.921718 -0.101236 -0.442482
6
ICOND 954
C 0.000381 -0.025587 0.054473
N -0.016971 -0.004530 1.300243
H 0.925346 0.050646 -0.571595
H 0.861768 0.139684 1.799914
H -0.720188 -0.021403 1.780601
H -0.835662 0.198679 -0.453187
6
ICOND 955
C 0.011002 -0.022593 0.027475
N -0.010882 0.000419 1.322870
H 0.948272 0.135220 -0.553730
H 0.866655 -0.006462 1.819458
H -0.791697 0.063424 1.830256
H -1.003022 0.070997 -0.533178
6
ICOND 956
C -0.000016 0.000269 0.028618
N -0.002604 0.001791 1.310511
H 0.935743 0.044860 -0.336260
H 0.879235 -0.063219 1.712480
H -0.833732 0.043244 1.870405
H -0.944868 -0.052975 -0.525711
6
ICOND 957
C -0.028802 0.037311 0.037981
N -0.007588 -0.037823 1.300160
H 1.166829 -0.168414 -0.343904
H 0.914801 0.214043 1.697953
H -0.766974 0.090786 1.878207
H -0.866293 -0.055145 -0.479002
6
ICOND 958
C 0.007650 -0.008171 0.036522
N -0.000141 -0.011357 1.309609
H 0.859636 0.013196 -0.408467
H 0.914184 0.118078 1.745878
H -0.919568 0.026169 1.743200
H -0.943370 0.097656 -0.441271
6
ICOND 959
C -0.040004 0.025097 0.061076
N 0.014745 -0.021718 1.293766
H 1.051706 -0.032577 -0.409731
H 0.917918 0.029768 1.836152
H -0.856832 0.135272 1.772123
H -0.841347 -0.129531 -0.631447
6
ICOND 960
C 0.003617 -0.008116 0.073950
N -0.008146 0.018025 1.283666
H 0.913019 -0.039085 -0.528315
H 0.869873 -0.033586 1.858623
H -0.751046 -0.137975 1.832412
H -0.961735 0.056845 -0.608577
6
ICOND 961
C 0.001190 -0.005066 0.021556
N 0.010103 0.000070 1.316484
H 0.845765 -0.026139 -0.652681
H 0.700764 0.060163 1.954109
H -0.860982 -0.047130 1.909107
H -0.840096 0.072459 -0.488519
6
ICOND 962
C 0.002491 -0.029244 0.024955
N -0.007717 0.016274 1.299102
H 0.956918 0.214983 -0.483812
H 0.798232 -0.163311 1.895831
H -0.760269 0.068045 1.923864
H -0.917324 0.002377 -0.412825
6
ICOND 963
C -0.032981 0.004225 0.092472
N 0.016085 0.005188 1.258784
H 0.967767 0.005999 -0.337937
H 0.948217 -0.070159 1.866132
H -0.885656 0.002923 1.769702
H -0.861124 -0.061161 -0.618561
6
ICOND 964
C 0.009887 -0.004606 0.027133
N -0.000880 0.016889 1.316990
H 0.816490 -0.023014 -0.557185
H 0.785922 -0.065351 1.895733
H -0.792068 -0.103564 1.897212
H -0.915831 0.012102 -0.587181
6
ICOND 965
C 0.002396 0.012718 0.049087
N -0.009502 -0.014680 1.312975
H 0.939133 -0.098747 -0.475275
H 0.900698 0.130613 1.650711
H -0.834538 -0.007504 1.867151
H -0.901796 0.028176 -0.599629
6
ICOND 966
C 0.013449 0.017305 0.001229
N -0.016777 -0.032060 1.328957
H 0.929282 -0.022041 -0.558579
H 0.905854 0.141126 1.809181
H -0.872434 0.156213 1.933507
H -0.889741 -0.035905 -0.393379
6
ICOND 967
C 0.010975 0.010214 0.053113
N -0.009384 0.004926 1.312892
H 0.921030 -0.105840 -0.723934
H 0.771944 0.015323 1.802352
H -0.791920 -0.096034 1.910795
H -0.901343 -0.003508 -0.593045
6
ICOND 968
C 0.005959 -0.003849 0.018717
N -0.003946 0.001191 1.318405
H 0.913131 -0.010543 -0.533033
H 0.818512 0.027509 1.858098
H -0.821034 -0.029828 1.934887
H -0.926738 0.042148 -0.530835
6
ICOND 969
C 0.018974 0.001783 0.022053
N -0.011801 -0.013609 1.324272
H 0.883064 0.032336 -0.521637
H 0.879896 0.049913 1.657775
H -0.926754 0.091444 1.981871
H -0.898166 -0.005829 -0.510124
6
ICOND 970
C 0.033129 -0.006089 0.041589
N -0.000939 -0.026399 1.300163
H 0.737886 0.015229 -0.613421
H 0.770576 0.209210 1.909987
H -0.897180 0.090962 1.898519
H -0.992696 0.123894 -0.484837
6
ICOND 971
C -0.004167 0.006789 0.058383
N 0.014268 -0.023055 1.287981
H 0.950787 0.031236 -0.434624
H 0.797200 0.086213 1.826800
H -0.899882 0.142999 1.761820
H -0.996733 -0.020948 -0.474452
6
ICOND 972
C 0.003807 -0.042275 0.047313
N 0.000264 0.004795 1.301284
H 0.932691 0.188682 -0.516384
H 0.724904 0.029498 1.858654
H -0.717080 0.033999 1.800183
H -0.989509 0.184547 -0.515934
6
ICOND 973
C -0.011584 0.012234 0.042267
N 0.016266 -0.017610 1.293387
H 1.074064 0.026530 -0.408627
H 0.839907 0.018125 1.873254
H -0.931320 0.137777 1.853906
H -1.070726 -0.083425 -0.522217
6
ICOND 974
C 0.006937 0.014608 0.020768
N -0.006579 -0.005566 1.317942
H 0.898223 -0.113411 -0.571345
H 0.978983 0.069967 1.931688
H -0.925059 -0.049919 1.880085
H -0.943340 -0.003241 -0.529300
6
ICOND 975
C 0.002405 -0.009041 0.036547
N -0.018533 -0.000612 1.320120
H 0.928399 0.057895 -0.580611
H 0.876396 -0.001175 1.594617
H -0.858365 0.032350 1.872098
H -0.717562 0.027087 -0.393115
6
ICOND 976
C 0.018945 -0.000264 0.044254
N -0.023822 -0.009948 1.302608
H 0.927108 0.079971 -0.459649
H 0.929122 -0.014853 1.757589
H -0.741776 0.122440 1.825302
H -1.009041 -0.046195 -0.478695
6
ICOND 977
C 0.010912 -0.000366 0.043910
N -0.013033 -0.002355 1.288222
H 0.867212 0.046819 -0.540010
H 0.918178 -0.031935 1.902390
H -0.856705 0.058227 1.901147
H -0.877522 -0.036037 -0.414998
6
ICOND 978
C 0.005306 0.011584 0.042656
N 0.000428 -0.022303 1.300913
H 0.854874 0.000530 -0.436624
H 0.895975 0.083808 1.889815
H -0.830135 0.124282 1.839371
H -0.989831 -0.036664 -0.605439
6
ICOND 979
C 0.008374 -0.020602 -0.007561
N -0.009799 0.007896 1.343490
H 0.902693 0.127452 -0.528792
H 0.927074 -0.063649 1.865460
H -0.852013 0.034869 1.881454
H -0.941307 0.036917 -0.524646
6
ICOND 980
C -0.038216 0.021824 0.013766
N 0.018717 0.006999 1.306608
H 1.061033 -0.148281 -0.395868
H 0.946049 -0.027004 2.056220
H -0.906130 -0.107561 1.793348
H -0.905982 -0.074253 -0.501714
6
ICOND 981
C 0.014770 0.035138 0.026479
N -0.026860 -0.036803 1.304653
H 0.960244 -0.030322 -0.403890
H 0.953734 0.070363 1.803603
H -0.715481 0.229420 1.836816
H -1.001161 -0.176489 -0.408741
6
ICOND 982
C 0.000471 -0.011608 0.016775
N 0.005382 -0.007488 1.315871
H 0.925238 -0.014394 -0.444583
H 0.741453 0.142530 1.902971
H -0.754459 -0.030506 1.749105
H -0.992611 0.144620 -0.420042
6
ICOND 983
C -0.003538 0.029152 0.026890
N -0.002040 -0.013641 1.285542
H 0.989005 -0.169398 -0.380428
H 0.842795 0.095635 1.788286
H -0.911577 -0.028400 2.014604
H -0.849745 -0.055415 -0.334043
6
ICOND 984
C -0.002222 0.015416 0.045304
N -0.006723 0.006944 1.298820
H 0.901773 -0.131937 -0.548027
H 0.951246 -0.003657 1.858547
H -0.901614 -0.112890 1.747659
H -0.831526 -0.031557 -0.373501
6
ICOND 985
C -0.014314 0.011307 0.006475
N 0.013534 -0.020825 1.349903
H 1.020971 -0.058889 -0.541881
H 0.827554 0.139757 1.772162
H -0.923729 0.053210 1.806135
H -0.942411 0.020644 -0.599171
6
ICOND 986
C 0.006235 -0.015901 0.032631
N -0.002637 -0.010957 1.304806
H 0.939104 0.142141 -0.428614
H 0.837126 0.024075 1.836628
H -0.797776 0.136900 1.926820
H -1.016048 0.038459 -0.582442
6
ICOND 987
C 0.000250 -0.014282 0.078642
N 0.008649 0.000691 1.313931
H 0.904217 0.020896 -0.728225
H 0.826267 0.063173 1.733583
H -0.943184 -0.031744 1.831225
H -0.910439 0.108121 -0.758819
6
ICOND 988
C -0.009180 -0.015942 -0.001522
N -0.000242 0.011847 1.346279
H 0.988429 0.007601 -0.515606
H 0.917299 0.009149 1.854929
H -0.855484 -0.093046 1.743476
H -0.937566 0.101514 -0.499978
6
ICOND 989
C 0.022517 -0.015958 0.013783
N -0.006771 -0.010963 1.309178
H 0.938760 0.136499 -0.512898
H 0.709903 0.030611 1.831308
H -0.806335 0.130578 1.901257
H -1.016359 0.044635 -0.303587
6
ICOND 990
C -0.024649 -0.014533 0.017658
N 0.012592 -0.003978 1.295915
H 1.070135 0.168655 -0.451037
H 0.762509 -0.062935 2.041147
H -0.784416 0.145206 1.935060
H -0.929691 -0.022618 -0.470952
6
ICOND 991
C -0.019090 -0.021977 0.034716
N 0.017396 -0.005930 1.313257
H 0.892232 0.009028 -0.488785
H 0.909125 0.171938 1.920709
H -0.947698 -0.048440 1.805500
H -0.868069 0.211546 -0.627274
6
ICOND 992
C 0.002719 -0.004079 0.027897
N 0.004785 0.003451 1.328123
H 0.951103 0.040548 -0.601463
H 0.681212 -0.042638 1.767529
H -0.798178 0.016665 1.831624
H -0.932996 -0.013949 -0.512901
6
ICOND 993
C -0.023682 0.012731 0.059274
N 0.007824 -0.003831 1.273860
H 1.047652 -0.065092 -0.311526
H 0.757867 0.017029 1.770507
H -0.753527 -0.010510 1.868465
H -0.878721 -0.039785 -0.462302
6
ICOND 994
C 0.000559 0.006999 0.040975
N 0.010753 -0.008801 1.293769
H 0.903517 -0.039835 -0.581850
H 0.865744 0.061212 1.968506
H -1.001583 0.014300 1.788597
H -0.923735 0.003275 -0.368855
6
ICOND 995
C -0.013806 0.011279 0.059435
N 0.014290 0.003266 1.299558
H 0.840631 -0.114554 -0.573747
H 0.821678 0.029794 1.854056
H -0.918709 -0.095567 1.774344
H -0.777765 0.000647 -0.548479
6
ICOND 996
C 0.000161 0.021215 0.037541
N 0.014833 -0.018973 1.317034
H 0.813019 -0.079791 -0.591652
H 0.854497 0.086380 1.874332
H -1.002123 0.059732 1.745201
H -0.873405 -0.055305 -0.503837
6
ICOND 997
C 0.041507 0.004300 0.004965
N -0.029605 -0.013939 1.340961
H 0.898230 -0.005518 -0.685508
H 0.801634 0.077439 1.818957
H -0.719907 0.060616 1.815314
H -1.062831 0.009942 -0.369302
6
ICOND 998
C -0.027708 -0.009528 0.059389
N 0.005486 -0.016433 1.297472
H 1.026728 0.127671 -0.402453
H 0.880130 0.038102 1.730331
H -0.817222 0.164368 1.702314
H -0.835940 0.011638 -0.494495
6
ICOND 999
C -0.009431 -0.004950 0.028966
N 0.007655 0.029227 1.319739
H 0.885307 -0.007792 -0.487070
H 0.859679 -0.167153 1.840220
H -0.875278 -0.133368 1.669375
H -0.863780 -0.038839 -0.433979
6
ICOND 1000
C -0.020400 -0.001300 0.026405
N 0.023843 0.026727 1.319144
H 0.964868 -0.047895 -0.548584
H 0.943202 -0.129001 2.071509
H -0.992382 -0.154590 1.645531
H -1.004069 -0.024379 -0.541145
