           6
  t=         0.00000    9    3
C       0.001254325      0.041515333      0.032599592
N      -0.008094829     -0.014354144      1.313302313
H       0.953036700     -0.264525723     -0.436924430
H       0.873936143      0.126109560      1.755660239
H      -0.783854200     -0.084950426      1.932659803
H      -0.945581276     -0.071463864     -0.615020619
           6
  t=         0.50000    9    3
C       0.003110785      0.042456202      0.028646463
N      -0.009475513     -0.013685171      1.316705769
H       0.934388660     -0.262973722     -0.428193536
H       0.887183938      0.118270828      1.767557639
H      -0.772331265     -0.088308171      1.912718177
H      -0.954624918     -0.082316864     -0.615927210
           6
  t=         1.00000    9    3
C       0.004674406      0.043416226      0.021844945
N      -0.010582409     -0.012899115      1.322363406
H       0.916358473     -0.261026285     -0.422316918
H       0.899769807      0.108907755      1.779890421
H      -0.765069481     -0.092149403      1.894626181
H      -0.959680662     -0.093412342     -0.613669600
           6
  t=         1.50000    9    3
C       0.005832827      0.044436890      0.012514109
N      -0.011173184     -0.011938497      1.329993896
H       0.900728085     -0.259118714     -0.420312551
H       0.910458191      0.097574264      1.791849285
H      -0.764575540     -0.096694822      1.880364889
H      -0.960817394     -0.104940806     -0.608291902
           6
  t=         2.00000    9    3
C       0.006516746      0.045573786      0.001082338
N      -0.011104937     -0.010756773      1.339270034
H       0.889271315     -0.257692209     -0.423277631
H       0.918517864      0.083869004      1.802831848
H      -0.772611630     -0.102055794      1.871371415
H      -0.958475862     -0.117256955     -0.600086012
           6
  t=         2.50000    9    3
C       0.006752128      0.046898294     -0.011906336
N      -0.010403813     -0.009328867      1.349843589
H       0.883413007     -0.257091598     -0.432359264
H       0.923830126      0.067419314      1.812429925
H      -0.789497116     -0.108091027      1.868144171
H      -0.953588750     -0.130982932     -0.589634296
           6
  t=         3.00000    9    3
C       0.006738839      0.048512397     -0.025701041
N      -0.009319688     -0.007667129      1.361291876
H       0.883890716     -0.257540170     -0.448877893
H       0.927016335      0.047936308      1.820375253
H      -0.813764663     -0.114264109      1.870251099
H      -0.947890212     -0.147185672     -0.577983561
           6
  t=         3.50000    8    2
C       0.006891667      0.050572454     -0.039166000
N      -0.008290801     -0.005842828      1.372970369
H       0.890554549     -0.259554454     -0.474440669
H       0.929328021      0.025722738      1.826561927
H      -0.842455096     -0.119843944      1.876761663
H      -0.944290810     -0.167253959     -0.567058459
           6
  t=         4.00000    5    2
C       0.007026581      0.053380952     -0.054439105
N      -0.006920055     -0.003537004      1.386786094
H       0.903778034     -0.265517417     -0.511495177
H       0.929409480     -0.000710532      1.832854125
H      -0.878335068     -0.127821625      1.886935131
H      -0.942367926     -0.192358017     -0.556576294
           6
  t=         4.50000    5    2
C       0.006922455      0.056260008     -0.070473352
N      -0.005306297     -0.001043492      1.401360522
H       0.918570173     -0.272694107     -0.549981091
H       0.927387847     -0.027957215      1.839142827
H      -0.914859837     -0.137284492      1.897028201
H      -0.939796099     -0.217397657     -0.546057709
           6
  t=         5.00000    5    2
C       0.006607327      0.059100560     -0.087305611
N      -0.003612929      0.001719869      1.416809719
H       0.933775002     -0.280729015     -0.588477613
H       0.922215555     -0.056395298      1.845151509
H      -0.947977020     -0.148562630      1.905035722
H      -0.936487666     -0.241863324     -0.535815501
           6
  t=         5.50000    5    2
C       0.006321090      0.061861065     -0.104828443
N      -0.002121647      0.004752681      1.433032468
H       0.947560270     -0.288722865     -0.625931591
H       0.915085434     -0.086468198      1.851066171
H      -0.975359692     -0.161145979      1.910002973
H      -0.933072481     -0.266220763     -0.526007037
           6
  t=         6.00000    5    2
C       0.006252632      0.064505670     -0.122927953
N      -0.001052020      0.008062481      1.449904085
H       0.958495890     -0.296007303     -0.661464394
H       0.907216117     -0.118540792      1.857145534
H      -0.995406767     -0.174688212      1.911387397
H      -0.930138486     -0.290797607     -0.516850791
           6
  t=         6.50000    5    2
C       0.006535903      0.067001252     -0.141497918
N      -0.000563224      0.011665963      1.467298805
H       0.965565501     -0.302078558     -0.694413206
H       0.899704820     -0.152978225      1.863622942
H      -1.007142991     -0.188947317      1.908965700
H      -0.928125069     -0.315812034     -0.508537025
           6
  t=         7.00000    5    2
C       0.007249140      0.069314119     -0.160441267
N      -0.000748690      0.015586387      1.485101550
H       0.968133721     -0.306564002     -0.724339169
H       0.893337016     -0.190136645      1.870608681
H      -1.010135587     -0.203766069      1.902759278
H      -0.927248489     -0.341359806     -0.501193124
           6
  t=         7.50000    5    2
C       0.008416384      0.071406865     -0.179667445
N      -0.001626804      0.019849261      1.503214585
H       0.965907437     -0.309205906     -0.751019607
H       0.888415174     -0.230296871      1.878009179
H      -1.004465524     -0.219077835      1.892981759
H      -0.927467889     -0.367393479     -0.494882111
           6
  t=         8.00000    5    2
C       0.010011748      0.073236958     -0.199085906
N      -0.003133238      0.024477704      1.521558684
H       0.958907110     -0.309857037     -0.774441337
H       0.884674786     -0.273570919      1.885487479
H      -0.990755750     -0.234934128      1.880003773
H      -0.928501889     -0.393711533     -0.489628135
           6
  t=         8.50000    5    2
C       0.011965458      0.074756911     -0.218595797
N      -0.005119078      0.029491244      1.540069858
H       0.947458822     -0.308483937     -0.794808978
H       0.881331943     -0.319819165      1.892474477
H      -0.970245600     -0.251557725      1.864317243
H      -0.929891565     -0.419970221     -0.485461164
           6
  t=         9.00000    5    2
C       0.014169570      0.075915003     -0.238068644
N      -0.007356125      0.034911490      1.558693107
H       0.932210629     -0.305180281     -0.812579535
H       0.877251756     -0.368615655      1.898215440
H      -0.944878208     -0.269424136      1.846470734
H      -0.931092370     -0.445710695     -0.482483536
           6
  t=         9.50000    5    2
C       0.016478755      0.076651494     -0.257313322
N      -0.009549023      0.040778358      1.577377147
H       0.914187856     -0.300190480     -0.828551198
H       0.871179128     -0.419274842      1.901796701
H      -0.917326120     -0.289369619      1.826905391
H      -0.931575365     -0.470381148     -0.480987697
           6
  t=        10.00000    5    2
C       0.018694001      0.076880842     -0.275996519
N      -0.011355089      0.047173954      1.596069093
H       0.894921899     -0.293952185     -0.844050600
H       0.861984945     -0.470895268      1.902089022
H      -0.890835716     -0.312668846      1.805575867
H      -0.930888195     -0.493292965     -0.481706302
           6
  t=        10.50000    5    2
C       0.020574653      0.076553123     -0.293777335
N      -0.012454979      0.054108373      1.614699456
H       0.876117822     -0.287138277     -0.860438227
H       0.849082172     -0.522083186      1.898291706
H      -0.868793943     -0.340327710      1.782292555
H      -0.928333588     -0.513706987     -0.485382093
           6
  t=        11.00000    5    2
C       0.022092045      0.075856091     -0.310902086
N      -0.012712284      0.061365439      1.633258957
H       0.858194953     -0.280405575     -0.877639911
H       0.832416306     -0.571251711      1.890960837
H      -0.853688875     -0.372229663      1.758417151
H      -0.923342283     -0.531901696     -0.490945263
           6
  t=        11.50000    4    1
C       0.023677740      0.075086950     -0.328135395
N      -0.012248464      0.068880079      1.652049976
H       0.840064333     -0.273771793     -0.894931013
H       0.811668082     -0.618457866      1.880089240
H      -0.845878449     -0.408938539      1.735215173
H      -0.917599076     -0.549873185     -0.495475908
           6
  t=        12.00000    4    1
C       0.024696630      0.074091005     -0.345305452
N      -0.010871708      0.076504210      1.671051439
H       0.825447842     -0.267135722     -0.914442266
H       0.785762971     -0.662517314      1.868056265
H      -0.844778704     -0.449439256      1.712609335
H      -0.909438236     -0.566022610     -0.500898314
           6
  t=        12.50000    4    1
C       0.025039191      0.073063821     -0.362075398
N      -0.008862196      0.083920024      1.689913666
H       0.815836221     -0.262083613     -0.936452212
H       0.755050799     -0.701944153      1.854894680
H      -0.847221651     -0.491735636      1.691220312
H      -0.898671292     -0.580158617     -0.506739692
           6
  t=        13.00000    4    1
C       0.024676215      0.071955453     -0.378329737
N      -0.006470957      0.090919519      1.708658624
H       0.811804033     -0.258625214     -0.961734878
H       0.720493085     -0.735976722      1.840512018
H      -0.850724371     -0.533340129      1.670536075
H      -0.885481622     -0.592035951     -0.513301918
           6
  t=        13.50000    4    1
C       0.023632870      0.070747751     -0.394052799
N      -0.003920604      0.097280299      1.727241123
H       0.813388769     -0.256552546     -0.990307426
H       0.683113004     -0.764039276      1.825270622
H      -0.853227177     -0.571766189      1.650716059
H      -0.870196183     -0.601618723     -0.520648317
           6
  t=        14.00000    4    1
C       0.022012810      0.069430318     -0.409265047
N      -0.001392156      0.102820689      1.745591193
H       0.819900329     -0.255441228     -1.021708245
H       0.644033818     -0.785800384      1.809643143
H      -0.853357200     -0.604890616      1.632164530
H      -0.853340042     -0.609137896     -0.528901580
           6
  t=        14.50000    4    1
C       0.019978515      0.067997011     -0.424028511
N       0.000975755      0.107413535      1.763634173
H       0.830135454     -0.254691346     -1.055046475
H       0.604468117     -0.801210449      1.794144416
H      -0.850419489     -0.631088807      1.615364053
H      -0.835625881     -0.615027695     -0.538174009
           6
  t=        15.00000    4    1
C       0.017724925      0.066452562     -0.438429935
N       0.003080025      0.110989093      1.781299413
H       0.842640361     -0.253646099     -1.089195180
H       0.565684568     -0.810527183      1.779296574
H      -0.844263364     -0.649239180      1.600780642
H      -0.817907858     -0.619896093     -0.548566203
           6
  t=        15.50000    1    1
C       0.015459935      0.064817691     -0.452557087
N       0.004845413      0.113536740      1.798522070
H       0.855910120     -0.251686640     -1.122993522
H       0.528954514     -0.814348762      1.765589451
H      -0.835134301     -0.658699957      1.588813391
H      -0.801136829     -0.624504685     -0.560181959
           6
  t=        16.00000    1    1
C       0.013115923      0.062832308     -0.467955698
N       0.006558566      0.115853866      1.817217728
H       0.869934181     -0.248030537     -1.159757896
H       0.490363607     -0.816157154      1.751162847
H      -0.823765817     -0.664455225      1.577259864
H      -0.783832011     -0.629152149     -0.573853300
           6
  t=        16.50000    1    1
C       0.011269985      0.060510956     -0.483218917
N       0.007762300      0.117266402      1.835440835
H       0.881602286     -0.240876784     -1.194795293
H       0.456697796     -0.814307782      1.738284522
H      -0.810422356     -0.660685400      1.569218386
H      -0.769923750     -0.633911112     -0.589358247
           6
  t=        17.00000    1    1
C       0.010086979      0.057901858     -0.498406773
N       0.008418975      0.117858834      1.853149048
H       0.889974016     -0.229912615     -1.227282911
H       0.429336221     -0.810060196      1.727157641
H      -0.796028154     -0.647393926      1.564927855
H      -0.760366473     -0.639579395     -0.606658584
           6
  t=        17.50000    1    1
C       0.009671719      0.055040556     -0.513563507
N       0.008516878      0.117734975      1.870316654
H       0.894424853     -0.214978961     -1.256632251
H       0.409486506     -0.804674931      1.717883378
H      -0.781680353     -0.624836146      1.564505107
H      -0.755731412     -0.646665793     -0.625676794
           6
  t=        18.00000    1    1
C       0.010063569      0.051938841     -0.528719861
N       0.008075895      0.117006223      1.886933482
H       0.894617831     -0.196046882     -1.282471919
H       0.398100116     -0.799238582      1.710492581
H      -0.768642141     -0.593531990      1.567924444
H      -0.756114884     -0.655280922     -0.646282026
           6
  t=        18.50000    1    1
C       0.011237888      0.048581337     -0.543894474
N       0.007155048      0.115781966      1.903003512
H       0.890481349     -0.173196796     -1.304634647
H       0.395770618     -0.794491050      1.704991966
H      -0.758345938     -0.554308789      1.574986652
H      -0.761133088     -0.665113959     -0.668282462
           6
  t=        19.00000    1    1
C       0.013113902      0.044930464     -0.559093688
N       0.005860652      0.114164405      1.918544367
H       0.882198739     -0.146601189     -1.323155728
H       0.402627545     -0.790701928      1.701413367
H      -0.752401354     -0.508357336      1.585276252
H      -0.770004724     -0.675504532     -0.691428473
           6
  t=        19.50000    1    1
C       0.015566445      0.040936965     -0.574309617
N       0.004351572      0.112247255      1.933587541
H       0.870209111     -0.116508336     -1.338283590
H       0.418251249     -0.787637095      1.699847651
H      -0.752584695     -0.457252300      1.598126205
H      -0.781689930     -0.685579463     -0.715426979
           6
  t=        20.00000    1    1
C       0.018438355      0.036551403     -0.589517159
N       0.002834195      0.110113552      1.948176979
H       0.855212936     -0.083222106     -1.350498284
H       0.441643663     -0.784633275      1.700449373
H      -0.760742671     -0.402851740      1.612637918
H      -0.795040714     -0.694405195     -0.739963332
           6
  t=        20.50000    1    1
C       0.021551713      0.031732726     -0.604671213
N       0.001536615      0.107825939      1.962360979
H       0.838169744     -0.047072029     -1.360527231
H       0.471282820     -0.780762222      1.703410098
H      -0.778492165     -0.347001500      1.627826792
H      -0.808928529     -0.701116181     -0.764725174
           6
  t=        21.00000    1    1
C       0.024718480      0.026451899     -0.619706065
N       0.000657120      0.105410831      1.976175064
H       0.820266671     -0.008369380     -1.369337577
H       0.505264265     -0.775039120      1.708910647
H      -0.806650721     -0.291108312      1.642914105
H      -0.822334627     -0.705000542     -0.789423479
           6
  t=        21.50000    1    1
C       0.027752795      0.020691267     -0.634539700
N       0.000303023      0.102851376      1.989622757
H       0.802832092      0.032646081     -1.378071894
H       0.541498815     -0.766616005      1.717072499
H      -0.844588716     -0.235849522      1.657642028
H      -0.834405867     -0.705544761     -0.813804785
           6
  t=        22.00000    1    1
C       0.030485275      0.014444396     -0.649087163
N       0.000460064      0.100106245      2.002667945
H       0.787193298      0.075846025     -1.387878939
H       0.577903024     -0.754921632      1.727935764
H      -0.889992816     -0.181310297      1.672371483
H      -0.844484493     -0.702455754     -0.837631182
           6
  t=        22.50000    1    1
C       0.032774806      0.007749740     -0.663150050
N       0.001033139      0.097165625      2.015156920
H       0.774290365      0.121009839     -1.399759664
H       0.612709968     -0.740012305      1.741632789
H      -0.939655954     -0.127516583      1.687876203
H      -0.851949071     -0.695752143     -0.861034453
           6
  t=        23.00000    1    1
C       0.034551122      0.000635385     -0.676688546
N       0.001841470      0.094032147      2.027034912
H       0.764682598      0.168092721     -1.414283461
H       0.644394873     -0.722012413      1.758022638
H      -0.989519977     -0.074492279      1.705085202
H      -0.856543855     -0.685611851     -0.883946388
           6
  t=        23.50000    1    1
C       0.035819884     -0.006852151     -0.689708871
N       0.002698560      0.090756404      2.038269185
H       0.758289888      0.217002640     -1.431419020
H       0.671849889     -0.701366871      1.776859784
H      -1.035870913     -0.022591781      1.724739641
H      -0.858271008     -0.672400357     -0.906365007
           6
  t=        24.00000    1    1
C       0.036661515     -0.014638229     -0.702264144
N       0.003440930      0.087428954      2.048854624
H       0.754416730      0.267470898     -1.450515784
H       0.694398189     -0.678790428      1.797813848
H      -1.075749783      0.027561867      1.747289051
H      -0.857403335     -0.656658124     -0.928356475
           6
  t=        24.50000    1    1
C       0.037215654     -0.022615581     -0.714440724
N       0.003934243      0.084166750      2.058810561
H       0.751937706      0.318978076     -1.470456953
H       0.711782640     -0.655213466      1.820490095
H      -1.107023268      0.075211560      1.772909351
H      -0.854487720     -0.639080463     -0.950059130
           6
  t=        25.00000    1    1
C       0.037657635     -0.030648059     -0.726337178
N       0.004067707      0.081101007      2.068173499
H       0.749557355      0.370766912     -1.489905400
H       0.724145944     -0.631731948      1.844456306
H      -1.128283329      0.119583177      1.801572162
H      -0.850327754     -0.620484265     -0.971683061
           6
  t=        25.50000    1    1
C       0.038174151     -0.038581471     -0.738045110
N       0.003746459      0.078367597      2.076989619
H       0.746044470      0.421922134     -1.507538856
H       0.731997758     -0.609552311      1.869275318
H      -1.138706318      0.159961595      1.833115027
H      -0.845930373     -0.601756473     -0.993501858
           6
  t=        26.00000    1    1
C       0.038941879     -0.046258583     -0.749637710
N       0.002888289      0.076098674      2.085308145
H       0.740383257      0.471474861     -1.522210636
H       0.736152496     -0.589919760      1.894545537
H      -1.137943823      0.195733213      1.867293954
H      -0.842404038     -0.583777790     -1.015829079
           6
  t=        26.50000    1    1
C       0.040108912     -0.053535104     -0.761167203
N       0.001428709      0.074413349      2.093176094
H       0.731839968      0.518496591     -1.533027410
H       0.737619289     -0.574017465      1.919947442
H      -1.126082116      0.226413742      1.903813328
H      -0.840805140     -0.567325228     -1.038974379
           6
  t=        27.00000    4    1
C       0.041769188     -0.060303420     -0.772669509
N      -0.000652210      0.073393676      2.100642022
H       0.720031848      0.562229712     -1.539448371
H       0.737464025     -0.562748736      1.945290136
H      -1.103878295      0.251776730      1.942300449
H      -0.841901328     -0.552932871     -1.063161907
           6
  t=        27.50000    4    1
C       0.043982717     -0.066471171     -0.784094910
N      -0.003438877      0.072902040      2.107793554
H       0.704575385      0.601622387     -1.541118302
H       0.737874375     -0.555338287      1.969698377
H      -1.072183211      0.273135098      1.981646984
H      -0.846187615     -0.540824720     -1.088572804
           6
  t=        28.00000    4    1
C       0.046735717     -0.071993323     -0.795542187
N      -0.006727559      0.073159682      2.114590307
H       0.685628723      0.636459376     -1.537734727
H       0.737980605     -0.553569084      1.994125221
H      -1.033032505      0.289023780      2.022233585
H      -0.853583446     -0.531147719     -1.115105977
           6
  t=        28.50000    4    1
C       0.049955807     -0.076864310     -0.807035389
N      -0.010287543      0.074115728      2.121048168
H       0.663431002      0.666420480     -1.529320286
H       0.737789983     -0.557190865      2.018812726
H      -0.989586562      0.299919705      2.063651673
H      -0.863518584     -0.523668274     -1.142506647
           6
  t=        29.00000    4    1
C       0.053523832     -0.081110283     -0.818598311
N      -0.013747266      0.075655008      2.127173521
H       0.638392499      0.691391340     -1.516072269
H       0.736849920     -0.565538493      2.044062285
H      -0.946499006      0.306786685      2.105574524
H      -0.875040973     -0.517989387     -1.170357586
           6
  t=        29.50000    4    1
C       0.057289655     -0.084783814     -0.830250443
N      -0.016608020      0.077607487      2.132954409
H       0.611080959      0.711496916     -1.498360025
H       0.734384584     -0.577686161      2.070173663
H      -0.909867504      0.311097809      2.147947328
H      -0.886986443     -0.513646430     -1.198136192
           6
  t=        30.00000    4    1
C       0.061088670     -0.087960453     -0.842002038
N      -0.018332572      0.079781875      2.138346692
H       0.582208531      0.727142225     -1.476723363
H       0.729499173     -0.592649326      2.097411572
H      -0.886213623      0.314569754      2.191218971
H      -0.898155318     -0.510188217     -1.225280896
           6
  t=        30.50000    4    1
C       0.064755763     -0.090738283     -0.853850241
N      -0.018524042      0.082027731      2.143271559
H       0.552616616      0.739059875     -1.451867296
H       0.721378702     -0.609571596      2.126014509
H      -0.880205318      0.318485946      2.236372536
H      -0.907454486     -0.507229038     -1.251247211
           6
  t=        31.00000    4    1
C       0.068135828     -0.093238775     -0.865777457
N      -0.017107714      0.084297320      2.147644621
H       0.523250693      0.748348899     -1.424641233
H       0.709421433     -0.627838820      2.156226262
H      -0.892271797      0.322949147      2.284488190
H      -0.913989777     -0.504475255     -1.275546679
           6
  t=        31.50000    4    1
C       0.071090784     -0.095604259     -0.877751548
N      -0.014354754      0.086651883      2.151421615
H       0.495119454      0.756467368     -1.395991398
H       0.693285607     -0.647089470      2.188317916
H      -0.918320898      0.326798379      2.336070361
H      -0.917108488     -0.501741695     -1.297776201
           6
  t=        32.00000    4    1
C       0.073505789     -0.097988908     -0.889729291
N      -0.010725596      0.089205476      2.154620424
H       0.469224341      0.765141175     -1.366871946
H       0.672856958     -0.667138876      2.222565486
H      -0.951874387      0.328305592      2.390742680
H      -0.916411238     -0.498959905     -1.317644427
           6
  t=        32.50000    4    1
C       0.075297659     -0.100540812     -0.901665723
N      -0.006685427      0.092059541      2.157307687
H       0.446453083      0.776155898     -1.338106907
H       0.648175237     -0.687861233      2.259204178
H      -0.986548993      0.325962759      2.447472697
H      -0.911754808     -0.496179411     -1.334991341
           6
  t=        33.00000    4    1
C       0.076426139     -0.103375647     -0.913527266
N      -0.002605196      0.095266880      2.159576119
H       0.427449467      0.791036467     -1.310231687
H       0.619356853     -0.709064661      2.298371615
H      -1.017350048      0.318858482      2.504954818
H      -0.903260682     -0.493561959     -1.349801589
           6
  t=        33.50000    4    1
C       0.076903941     -0.106547031     -0.925301670
N       0.001255860      0.098822817      2.161530531
H       0.412502770      0.810683339     -1.283378878
H       0.586550655     -0.730388864      2.340053181
H      -1.040868157      0.306701485      2.561870783
H      -0.891325783     -0.491373615     -1.362211859
           6
  t=        34.00000    4    1
C       0.076800848     -0.110025319     -0.936997699
N       0.004730302      0.102670623      2.163284202
H       0.401507357      0.835108110     -1.257281098
H       0.549931906     -0.751251499      2.384033465
H      -1.054995754      0.289695357      2.616995074
H      -0.876631782     -0.489976687     -1.372518164
           6
  t=        34.50000    4    1
C       0.076238998     -0.113695968     -0.948634126
N       0.007715157      0.106712534      2.164959090
H       0.394014123      0.863399898     -1.231401080
H       0.509731077     -0.770857393      2.429869528
H      -1.058575026      0.268398110      2.669218633
H      -0.860141366     -0.489818960     -1.381176768
           6
  t=        35.00000    4    1
C       0.075380093     -0.117379225     -0.960224223
N       0.010148996      0.110822965      2.166685120
H       0.389348761      0.893938599     -1.205126770
H       0.466283309     -0.788268576      2.476895412
H      -1.051127967      0.243611670      2.717550196
H      -0.843065213     -0.491415571     -1.388789743
           6
  t=        35.50000    4    1
C       0.074406992     -0.120862182     -0.971764022
N       0.011996465      0.114862220      2.168596894
H       0.386745844      0.924742388     -1.177945189
H       0.420078040     -0.802516701      2.524257264
H      -1.032690334      0.216306025      2.761122405
H      -0.826777641     -0.495317122     -1.396066273
           6
  t=        36.00000    4    1
C       0.073502323     -0.123932113     -0.983230412
N       0.013239724      0.118689420      2.170827190
H       0.385454347      0.953808167     -1.149537093
H       0.371796555     -0.812734228      2.570974847
H      -1.003729722      0.187572091      2.799215727
H      -0.812667949     -0.502054445     -1.403745900
           6
  t=        36.50000    4    1
C       0.072825388     -0.126403349     -0.994588191
N       0.013876177      0.122173607      2.173498064
H       0.384801700      0.979351415     -1.119796799
H       0.322325322     -0.818279999      2.616016489
H      -0.965127338      0.158593636      2.831303771
H      -0.801929560     -0.512059071     -1.412491247
           6
  t=        37.00000    4    1
C       0.072490487     -0.128135769     -1.005802328
N       0.013921399      0.125202633      2.176709885
H       0.384222013      0.999932049     -1.088803117
H       0.272743290     -0.818843715      2.658376211
H      -0.918206081      0.130628145      2.857126112
H      -0.795329972     -0.525568902     -1.422768803
           6
  t=        37.50000    4    1
C       0.072551940     -0.129045241     -1.016849938
N       0.013415936      0.127689829      2.180528374
H       0.383261491      1.014495380     -1.056769707
H       0.224284201     -0.814518860      2.697145039
H      -0.864787692      0.104986694      2.876795678
H      -0.793037518     -0.542544374     -1.434754468
           6
  t=        38.00000    4    1
C       0.073001168     -0.129106611     -1.027727038
N       0.012433794      0.129579675      2.184970023
H       0.381572047      1.022367168     -1.023994467
H       0.178280852     -0.805851912      2.731572672
H      -0.807255631      0.083003664      2.890938295
H      -0.794579575     -0.562627218     -1.448302476
           6
  t=        38.50000    1    1
C       0.073776488     -0.128349927     -1.038448892
N       0.011087234      0.130855397      2.189986519
H       0.378903233      1.023231037     -0.990813341
H       0.136095527     -0.793901450      2.761143939
H      -0.748553625      0.065990587      2.900832984
H      -0.798949633     -0.585163187     -1.462987658
           6
  t=        39.00000    4    1
C       0.074750910     -0.127149022     -1.050232013
N       0.009485983      0.131940537      2.195768219
H       0.375398894      1.020763619     -0.954123125
H       0.092140520     -0.779588110      2.791053453
H      -0.684850962      0.050443082      2.910670865
H      -0.804547026     -0.610837542     -1.479459133
           6
  t=        39.50000    4    1
C       0.075860250     -0.125320894     -1.061935696
N       0.007884637      0.132416838      2.201811603
H       0.370599931      1.011620571     -0.917631906
H       0.054731755     -0.764855182      2.815099309
H      -0.627870192      0.042700061      2.921778338
H      -0.810279300     -0.637069154     -1.495719318
           6
  t=        40.00000    4    1
C       0.076991488     -0.122983675     -1.073594854
N       0.006510937      0.132341209      2.207846117
H       0.364485095      0.996218671     -0.881674670
H       0.024949080     -0.751724414      2.833102851
H      -0.581851901      0.044008958      2.938281559
H      -0.814783034     -0.662884619     -1.511205858
           6
  t=        40.50000    4    1
C       0.078049281     -0.120278032     -1.085239316
N       0.005520614      0.131770268      2.213627042
H       0.357077807      0.975286128     -0.846462548
H       0.003458868     -0.742158398      2.844893389
H      -0.549628879      0.055565953      2.963764015
H      -0.816943768     -0.687357503     -1.525365067
           6
  t=        41.00000    4    1
C       0.078954014     -0.117356502     -1.096899444
N       0.004934845      0.130736060      2.219052040
H       0.348481551      0.949830922     -0.812077345
H      -0.009647764     -0.737599133      2.850311437
H      -0.531585627      0.078384201      2.999811271
H      -0.815917915     -0.709695972     -1.537757727
           6
  t=        41.50000    4    1
C       0.079643015     -0.114378437     -1.108608478
N       0.004635420      0.129245039      2.224218344
H       0.338873772      0.921111913     -0.778437059
H      -0.014874994     -0.738603572      2.849228639
H      -0.525570803      0.112942688      3.045200386
H      -0.811141389     -0.729273209     -1.548069809
           6
  t=        42.00000    4    1
C       0.080070947     -0.111502635     -1.120404725
N       0.004421427      0.127300911      2.229381374
H       0.328490238      0.890569012     -0.745272524
H      -0.013151922     -0.744817509      2.841620247
H      -0.527855479      0.158842107      3.096405391
H      -0.802318435     -0.745644714     -1.556112496
           6
  t=        42.50000    4    1
C       0.080211400     -0.108875608     -1.132331395
N       0.004082986      0.124929062      2.234853909
H       0.317594515      0.859697019     -0.712132507
H      -0.005572879     -0.755283728      2.827631666
H      -0.534417734      0.214773755      3.148933115
H      -0.789409599     -0.758562061     -1.561820647
           6
  t=        43.00000    4    1
C       0.080060286     -0.106614509     -1.144432262
N       0.003450336      0.122186150      2.240915836
H       0.306432470      0.829858211     -0.678435920
H       0.006792292     -0.768834028      2.807610048
H      -0.541814691      0.278779706      3.198545737
H      -0.772626371     -0.767990090     -1.565252312
           6
  t=        43.50000    4    1
C       0.079640468     -0.104787184     -1.156741145
N       0.002410003      0.119157239      2.247767841
H       0.295181614      0.802065684     -0.643588072
H       0.022962827     -0.784353783      2.782124615
H      -0.547471904      0.348559472      3.241883434
H      -0.752435538     -0.774130111     -1.566597311
           6
  t=        44.00000    4    1
C       0.079005994     -0.103394175     -1.169268225
N       0.000900449      0.115948742      2.255522512
H       0.283910712      0.776796516     -0.607136149
H       0.042043397     -0.800904762      2.751976777
H      -0.549619050      0.421693353      3.276576900
H      -0.729569376     -0.777449842     -1.566183687
           6
  t=        44.50000    4    1
C       0.078243682     -0.102360061     -1.181986427
N      -0.001099774      0.112680983      2.264215393
H       0.272568118      0.753915032     -0.568923133
H       0.063214920     -0.817761906      2.718174511
H      -0.547116100      0.495784705      3.301118641
H      -0.705032914     -0.778711836     -1.564485152
           6
  t=        45.00000    4    1
C       0.077469676     -0.101538476     -1.194824344
N      -0.003584096      0.109480555      2.273822918
H       0.261006495      0.732741589     -0.529177132
H       0.085739064     -0.834400385      2.681862654
H      -0.539290464      0.568554502      3.314682992
H      -0.680087216     -0.778983978     -1.562115576
           6
  t=        45.50000    4    1
C       0.076819567     -0.100730954     -1.207669679
N      -0.006527752      0.106472098      2.284280210
H       0.249033624      0.712240908     -0.488501655
H       0.108968590     -0.850442055      2.644231808
H      -0.525811876      0.637902692      3.316969743
H      -0.656181694     -0.779603920     -1.559797532
           6
  t=        46.00000    4    1
C       0.076431231     -0.099716060     -1.220383372
N      -0.009894664      0.103769695      2.295495681
H       0.236469889      0.691253911     -0.447777712
H       0.132349103     -0.865568596      2.606435234
H      -0.506599895      0.701940648      3.308084208
H      -0.634805722     -0.782064026     -1.558291775
           6
  t=        46.50000    4    1
C       0.076421666     -0.098284309     -1.232820342
N      -0.013641777      0.101469292      2.307360765
H       0.223192694      0.668699416     -0.408025015
H       0.155409979     -0.879429770      2.569537747
H      -0.481755917      0.759003959      3.288452623
H      -0.617255944     -0.787796327     -1.558288656
           6
  t=        47.00000    4    1
C       0.076858074     -0.096274156     -1.244847493
N      -0.017720151      0.099652619      2.319736310
H       0.209193788      0.643729831     -0.370260538
H       0.177720339     -0.891613543      2.534670915
H      -0.451505290      0.807564641      3.258844849
H      -0.604348065     -0.797896353     -1.560323951
           6
  t=        47.50000    4    1
C       0.077742088     -0.093588385     -1.256324298
N      -0.022068173      0.098345604      2.332504239
H       0.194503221      0.615617771     -0.335908417
H       0.198867574     -0.901336547      2.502590969
H      -0.416249121      0.846459059      3.220178807
H      -0.596173920     -0.812774247     -1.564680301
           6
  t=        48.00000    4    1
C       0.079014441     -0.090225805     -1.267190559
N      -0.026634835      0.097560071      2.345528536
H       0.179240490      0.584041186     -0.305775440
H       0.218593995     -0.907941406      2.474002785
H      -0.376424157      0.874884380      3.173627811
H      -0.592161618     -0.832140966     -1.571256036
           6
  t=        48.50000    4    1
C       0.080562189     -0.086265100     -1.277421404
N      -0.031366195      0.097269776      2.358656517
H       0.163581372      0.548941946     -0.280478123
H       0.236727923     -0.910760145      2.449494936
H      -0.332593279      0.892552249      3.120713147
H      -0.591157071     -0.855016485     -1.579719187
           6
  t=        49.00000    4    1
C       0.082242628     -0.081842027     -1.287018477
N      -0.036205468      0.097395898      2.371711723
H       0.147741206      0.510487167     -0.260435626
H       0.253203883     -0.909184767      2.429521708
H      -0.285464039      0.899959347      3.063425750
H      -0.591692402     -0.879960996     -1.589624437
           6
  t=        49.50000    4    1
C       0.083907545     -0.077122321     -1.296000943
N      -0.041094536      0.097782560      2.384484039
H       0.131959822      0.469029664     -0.245868624
H       0.268083745     -0.902744066      2.414382445
H      -0.235888576      0.898803705      3.004388346
H      -0.592259956     -0.905357341     -1.600525619
           6
  t=        50.00000    4    1
C       0.085421472     -0.072279241     -1.304399467
N      -0.045981322      0.098166521      2.396722451
H       0.116485839      0.425073920     -0.236796376
H       0.281577488     -0.891191113      2.404207208
H      -0.184781714      0.892493963      2.946973096
H      -0.591514101     -0.929645074     -1.612052885
           6
  t=        50.50000    4    1
C       0.086670976     -0.067478546     -1.312254045
N      -0.050840595      0.098164388      2.408145992
H       0.101566482      0.379242032     -0.233027601
H       0.294069624     -0.874613111      2.398959141
H      -0.132858120      0.886439219      2.895146462
H      -0.588371816     -0.951467518     -1.623947021
           6
  t=        51.00000    4    1
C       0.087567695     -0.062870590     -1.319614382
N      -0.055710017      0.097331668      2.418497554
H       0.087437719      0.332242088     -0.234145754
H       0.306157475     -0.853564699      2.398458794
H      -0.080169279      0.887365001      2.852693052
H      -0.582039527     -0.969737454     -1.636065558
           6
  t=        51.50000    4    1
C       0.088047963     -0.058586676     -1.326541246
N      -0.060718201      0.095345462      2.427643521
H       0.074313889      0.284836094     -0.239496284
H       0.318705640     -0.829196127      2.402429237
H      -0.025767339      0.900905963      2.821781280
H      -0.571998969     -0.983651426     -1.648374472
           6
  t=        52.00000    4    1
C       0.088071107     -0.054736984     -1.333107147
N      -0.066058859      0.092234961      2.435650633
H       0.062378961      0.237805757     -0.248189147
H       0.332904240     -0.803295386      2.410550002
H       0.031877441      0.928446412      2.801840354
H      -0.557978179     -0.992681172     -1.660936514
           6
  t=        52.50000    4    1
C       0.087617683     -0.051408272     -1.339394773
N      -0.071911997      0.088432108      2.442749614
H       0.051782075      0.191913817     -0.259130052
H       0.350268775     -0.778111777      2.422495912
H       0.093778227      0.966239064      2.790031655
H      -0.539922374     -0.996561358     -1.673903351
           6
  t=        53.00000    4    1
C       0.086688388     -0.048660264     -1.345492061
N      -0.078379817      0.084565987      2.449217832
H       0.042637163      0.147860767     -0.271080875
H       0.372454361     -0.755877142      2.437943670
H       0.159719896      1.007780959      2.782873564
H      -0.517973761     -0.995287302     -1.687515012
           6
  t=        53.50000    4    1
C       0.085303443     -0.046520865     -1.351483114
N      -0.085467258      0.081199116      2.455288491
H       0.035022469      0.106241530     -0.282755017
H       0.400817779     -0.738122134      2.456575748
H       0.228423579      1.046792130      2.777492399
H      -0.492460635     -0.989126876     -1.702105699
           6
  t=        54.00000    4    1
C       0.083501762     -0.044981480     -1.357435473
N      -0.093082485      0.078679667      2.461123930
H       0.028980402      0.067513529     -0.292952574
H       0.435886434     -0.725101510      2.478086709
H       0.298087691      1.078693154      2.771980448
H      -0.463890559     -0.978643257     -1.718113565
           6
  t=        54.50000    4    1
C       0.081339574     -0.043993957     -1.363386047
N      -0.101043503      0.077125789      2.466829109
H       0.024520006      0.031984074     -0.300716346
H       0.477026370     -0.715697162      2.502150562
H       0.366816072      1.100725924      2.765240375
H      -0.432940648     -0.964718702     -1.736091349
           6
  t=        55.00000    4    1
C       0.078887763     -0.043470832     -1.369329295
N      -0.109098134      0.076488943      2.472474876
H       0.021621034     -0.000181401     -0.305467347
H       0.522508488     -0.707881557      2.528366460
H       0.432831782      1.111537896      2.756717814
H      -0.400432514     -0.948560659     -1.756713219
           6
  t=        55.50000    4    1
C       0.076226933     -0.043291127     -1.375211893
N      -0.116958673      0.076637876      2.478115070
H       0.020235615     -0.028936186     -0.307079472
H       0.569914991     -0.699427242      2.556236784
H       0.494553234      1.110725995      2.746187499
H      -0.367276059     -0.931656980     -1.780765337
           6
  t=        56.00000    4    1
C       0.073438916     -0.043314496     -1.380937621
N      -0.124338947      0.077423916      2.483794425
H       0.020287405     -0.054321926     -0.305868427
H       0.616639257     -0.688473278      2.585195798
H       0.550609603      1.098496618      2.733615621
H      -0.334368102     -0.915638736     -1.809099702
           6
  t=        56.50000    4    1
C       0.070595187     -0.043404533     -1.386383598
N      -0.130981312      0.078715132      2.489550509
H       0.021668357     -0.076443840     -0.302506882
H       0.660266080     -0.673785771      2.614664348
H       0.599836008      1.075452071      2.719079043
H      -0.302451292     -0.902027998     -1.842526443
           6
  t=        57.00000    4    1
C       0.067744648     -0.043458543     -1.391426405
N      -0.136670737      0.080406363      2.495413296
H       0.024238398     -0.095452937     -0.297891286
H       0.698772763     -0.654781289      2.644102249
H       0.641268097      1.042474798      2.702719468
H      -0.271968516     -0.891901217     -1.881636640
           6
  t=        57.50000    4    1
C       0.064906238     -0.043434047     -1.395971864
N      -0.141239689      0.082416100      2.501404409
H       0.027829104     -0.111536013     -0.293000120
H       0.730591350     -0.631438450      2.673045520
H       0.674147883      1.000681960      2.684717459
H      -0.242978673     -0.885583459     -1.926590180
           6
  t=        58.00000    4    1
C       0.062070736     -0.043359738     -1.399979166
N      -0.144569379      0.084678493      2.507536555
H       0.032252622     -0.124907888     -0.288769253
H       0.754599567     -0.604193631      2.701131674
H       0.697950000      0.951431932      2.665275712
H      -0.215186965     -0.882525290     -1.976953868
           6
  t=        58.50000    4    1
C       0.059211289     -0.043324319     -1.403470737
N      -0.146591742      0.087134105      2.513813234
H       0.037313720     -0.135806201     -0.286001459
H       0.770090496     -0.573861163      2.728120870
H       0.712439464      0.896372463      2.644602687
H      -0.188082265     -0.881440475     -2.031675179
           6
  t=        59.00000    4    1
C       0.056297396     -0.043449162     -1.406525884
N      -0.147294324      0.089721676      2.520228584
H       0.042821114     -0.144486427     -0.285310490
H       0.776749297     -0.541595111      2.753922407
H       0.717762673      0.837516425      2.622888856
H      -0.161114661     -0.880636056     -2.089214349
           6
  t=        59.50000    1    1
C       0.053305910     -0.043858013     -1.409264074
N      -0.146727556      0.092379056      2.526767223
H       0.048596753     -0.151219069     -0.287093637
H       0.774705420     -0.508949555      2.778649269
H       0.714495601      0.777289641      2.600254714
H      -0.133835284     -0.878376284     -2.147771396
           6
  t=        60.00000    4    1
C       0.049883143     -0.044506742     -1.412284152
N      -0.145500628      0.095374227      2.534212240
H       0.055154761     -0.158042027     -0.290335978
H       0.768156099     -0.472784831      2.806213205
H       0.707073177      0.710057595      2.574194517
H      -0.102714791     -0.874377252     -2.213517474
           6
  t=        60.50000    4    1
C       0.046477373     -0.045376035     -1.415258427
N      -0.143834318      0.098238929      2.541569954
H       0.061561587     -0.164109051     -0.294776747
H       0.757841464     -0.439040381      2.833259246
H       0.697437982      0.646868043      2.547969314
H      -0.071772332     -0.868317384     -2.276714572
           6
  t=        61.00000    4    1
C       0.042998309     -0.046768289     -1.418395491
N      -0.141597484      0.100783560      2.548989861
H       0.067789895     -0.169166556     -0.301679618
H       0.740698727     -0.411128504      2.861265714
H       0.687066073      0.593936814      2.519750812
H      -0.040140915     -0.857018808     -2.335342513
           6
  t=        61.50000    4    1
C       0.039464477     -0.048706828     -1.421831219
N      -0.139203026      0.102861343      2.556469780
H       0.073771439     -0.173473767     -0.310818083
H       0.717862232     -0.391130215      2.891658430
H       0.680560818      0.555378322      2.488150181
H      -0.007973587     -0.839938600     -2.388016674
           6
  t=        62.00000    4    1
C       0.035897871     -0.051187057     -1.425687236
N      -0.137012228      0.104394022      2.564025874
H       0.079471910     -0.177282821     -0.321807138
H       0.690502829     -0.380523913      2.926042563
H       0.681769699      0.533751564      2.451341557
H       0.024503536     -0.816872617     -2.433677776
           6
  t=        62.50000    4    1
C       0.032320818     -0.054183858     -1.430071701
N      -0.135196937      0.105415314      2.571671722
H       0.084890267     -0.180838430     -0.334133711
H       0.659641561     -0.379770319      2.965801441
H       0.692055805      0.529043461      2.407754109
H       0.057029233     -0.787869886     -2.471552187
           6
  t=        63.00000    4    1
C       0.028753888     -0.057657188     -1.435078190
N      -0.133680048      0.106066067      2.579385355
H       0.090057197     -0.184375357     -0.347203290
H       0.626013131     -0.388217133      3.011678195
H       0.709607794      0.538642409      2.356949871
H       0.089333190     -0.753170155     -2.501120189
           6
  t=        63.50000    4    1
C       0.025214550     -0.061555940     -1.440782471
N      -0.132205792      0.106537318      2.587096845
H       0.095031604     -0.188112078     -0.360394583
H       0.590005523     -0.404352463      3.063573012
H       0.730477481      0.558383396      2.300000353
H       0.121155004     -0.713164661     -2.522100999
           6
  t=        64.00000    4    1
C       0.021716101     -0.065820334     -1.447236102
N      -0.130469342      0.107002017      2.594711266
H       0.099894839     -0.192241794     -0.373126434
H       0.551676597     -0.426143622      3.120572935
H       0.750364720      0.583835168      2.239139003
H       0.152261848     -0.668376440     -2.534463409
           6
  t=        64.50000    4    1
C       0.018266494     -0.070383189     -1.454457417
N      -0.128213736      0.107574795      2.602144483
H       0.104742233     -0.196922222     -0.384926490
H       0.510872191     -0.451294735      3.181102953
H       0.765846962      0.611116367      2.177113455
H       0.182470161     -0.619454955     -2.538465148
           6
  t=        65.00000    4    1
C       0.014866464     -0.075170486     -1.462420525
N      -0.125270129      0.108306768      2.609345236
H       0.109672827     -0.202266305     -0.395492083
H       0.467422116     -0.477457476      3.243148697
H       0.774743164      0.637178329      2.116656666
H       0.211677315     -0.567178461     -2.534723464
           6
  t=        65.50000    4    1
C       0.011506582     -0.080102055     -1.471043812
N      -0.121560424      0.109201176      2.616296975
H       0.114778015     -0.208334983     -0.404728262
H       0.421321174     -0.502440575      3.304535262
H       0.775969791      0.659797004      2.060182529
H       0.239907866     -0.512452847     -2.524314161
           6
  t=        66.00000    4    1
C       0.008162674     -0.085093345     -1.480180472
N      -0.117082655      0.110234631      2.623007481
H       0.120131724     -0.215134881     -0.412754146
H       0.372823692     -0.524379576      3.363190680
H       0.769243028      0.677447420      2.009666911
H       0.267377870     -0.456292714     -2.508878109
           6
  t=        66.50000    4    1
C       0.004790460     -0.090060642     -1.489615226
N      -0.111891495      0.111374570      2.629495581
H       0.125781984     -0.222619569     -0.419872939
H       0.322452336     -0.541808619      3.417311152
H       0.754798933      0.689132641      1.966666738
H       0.294567471     -0.399757774     -2.490690087
           6
  t=        67.00000    4    1
C       0.001335917     -0.094949045     -1.499051734
N      -0.106073842      0.112598167      2.635765376
H       0.131648372     -0.230618559     -0.426769457
H       0.270995951     -0.553611293      3.465311382
H       0.733077816      0.694115201      1.932702816
H       0.322178541     -0.343733986     -2.472586273
           6
  t=        67.50000    4    1
C      -0.002288612     -0.099708230     -1.508194867
N      -0.099740806      0.113881660      2.641830627
H       0.137707164     -0.239025769     -0.433893269
H       0.219312030     -0.559062643      3.506054833
H       0.704766603      0.692020378      1.908740516
H       0.351277929     -0.288946721     -2.457651163
           6
  t=        68.00000    4    1
C      -0.006176127     -0.104326064     -1.516788335
N      -0.093015981      0.115207141      2.647700537
H       0.143912195     -0.247726521     -0.441633288
H       0.168307145     -0.557739833      3.538730256
H       0.670674654      0.682692607      1.895484466
H       0.383020450     -0.235673554     -2.448568706
           6
  t=        68.50000    4    1
C      -0.010394036     -0.108831435     -1.524685929
N      -0.086029874      0.116558926      2.653383773
H       0.150198999     -0.256613479     -0.450254228
H       0.118863556     -0.549473096      3.562823068
H       0.631728957      0.666195209      1.893350007
H       0.418277251     -0.183693023     -2.446836234
           6
  t=        69.00000    4    1
C      -0.014950783     -0.113278267     -1.531897478
N      -0.078919704      0.117916518      2.658897787
H       0.156489038     -0.265600718     -0.459859589
H       0.071777502     -0.534310201      3.578096489
H       0.589032229      0.642870756      1.902350720
H       0.457235030     -0.132459034     -2.452252518
           6
  t=        69.50000    4    1
C      -0.019780547     -0.117717178     -1.538579043
N      -0.071836228      0.119243556      2.664285453
H       0.162693679     -0.274633816     -0.470386777
H       0.027710299     -0.512505039      3.584601693
H       0.544005974      0.613481681      1.921855272
H       0.499210548     -0.081426614     -2.463037505
           6
  t=        70.00000    4    1
C      -0.024755871     -0.122172080     -1.544974452
N      -0.064959799      0.120472090      2.669641674
H       0.168717521     -0.283694301     -0.481630927
H      -0.012847441     -0.484541649      3.582739009
H       0.498649065      0.579452030      1.950154849
H       0.542797995     -0.030325407     -2.476502962
           6
  t=        70.50000    7    1
C      -0.029718148     -0.126632807     -1.551345403
N      -0.058524065      0.121484540      2.675149040
H       0.174462771     -0.292799085     -0.493289999
H      -0.049611124     -0.451219931      3.573419897
H       0.455901980      0.543204234      1.983805345
H       0.586227983      0.020751630     -2.489839285
           6
  t=        71.00000    7    1
C      -0.034473817     -0.131027585     -1.557882895
N      -0.052632047      0.122082938      2.681155993
H       0.179855206     -0.301960774     -0.504711597
H      -0.083962080     -0.414159069      3.557966759
H       0.418420125      0.509046569      2.015769841
H       0.627427353      0.071024029     -2.500551503
           6
  t=        71.50000    7    1
C      -0.038913723     -0.135337815     -1.564798549
N      -0.047861946      0.122075140      2.688004270
H       0.184753410     -0.311279838     -0.515907737
H      -0.114565661     -0.374616085      3.539200264
H       0.393017031      0.480940018      2.039350170
H       0.665123393      0.120336555     -2.506978583
           6
  t=        72.00000    7    1
C      -0.042919885     -0.139505465     -1.572208636
N      -0.044510345      0.121335395      2.695974468
H       0.189034053     -0.320834627     -0.526641247
H      -0.141898453     -0.334927627      3.521012033
H       0.384272542      0.462959666      2.046756046
H       0.698052215      0.168085413     -2.507973353
           6
  t=        72.50000    7    1
C      -0.046398335     -0.143473989     -1.580179536
N      -0.042606366      0.119979034      2.704916602
H       0.192554869     -0.330708540     -0.536769687
H      -0.166834742     -0.297923567      3.508610874
H       0.393455327      0.456332128      2.034867485
H       0.725247481      0.213681476     -2.502892735
           6
  t=        73.00000    7    1
C      -0.049276364     -0.147192176     -1.588736053
N      -0.041838249      0.118374005      2.714140724
H       0.195151460     -0.340982978     -0.546263437
H      -0.190599502     -0.266347826      3.507727100
H       0.417457465      0.458696869      2.007551033
H       0.746009048      0.256588468     -2.491481509
           6
  t=        73.50000    7    1
C      -0.051499258     -0.150615972     -1.597869477
N      -0.041725903      0.116930547      2.722765009
H       0.196637752     -0.351732448     -0.555204663
H      -0.214395041     -0.241808284      3.522645720
H       0.450818195      0.465976420      1.972788044
H       0.759864033      0.296341702     -2.473775180
           6
  t=        74.00000    7    1
C      -0.053028204     -0.153709391     -1.607544192
N      -0.041856187      0.115886525      2.730178231
H       0.196811604     -0.363022088     -0.563770812
H      -0.238743761     -0.223927587      3.554007109
H       0.488333598      0.474506117      1.938444371
H       0.766538433      0.332560155     -2.450034012
           6
  t=        74.50000    7    1
C      -0.053839947     -0.156445418     -1.617702624
N      -0.041994777      0.115267250      2.736211501
H       0.195464060     -0.374907935     -0.572206812
H      -0.263081440     -0.210579118      3.598381556
H       0.526200968      0.481824287      1.910305337
H       0.765947006      0.364961572     -2.420707635
           6
  t=        75.00000    7    1
C      -0.053928532     -0.158807836     -1.628268295
N      -0.042067680      0.114974928      2.741013149
H       0.192391438     -0.387438411     -0.580794612
H      -0.286006532     -0.199012220      3.650057383
H       0.562007988      0.486551657      1.892022988
H       0.758205240      0.393388711     -2.386425998
           6
  t=        75.50000    8    2
C      -0.053309109     -0.160794530     -1.639147327
N      -0.042092209      0.114884159      2.744849191
H       0.187407122     -0.400658071     -0.589821061
H      -0.305872787     -0.186839830      3.703257035
H       0.594363463      0.488050125      1.885671021
H       0.743665609      0.417854305     -2.348012316
           6
  t=        76.00000    8    2
C      -0.052084383     -0.162305839     -1.649523718
N      -0.041989114      0.114952907      2.747836786
H       0.180796203     -0.413762661     -0.598958530
H      -0.320967443     -0.173705172      3.749478932
H       0.619603547      0.485760614      1.891696810
H       0.724115891      0.437153792     -2.309083816
           6
  t=        76.50000    8    2
C      -0.050264220     -0.163499502     -1.659985799
N      -0.041663836      0.115172647      2.750498109
H       0.172113168     -0.427699100     -0.609033288
H      -0.332407986     -0.158294866      3.788320612
H       0.638261610      0.479303592      1.909723793
H       0.699389337      0.453296910     -2.268285384
           6
  t=        77.00000    8    2
C      -0.047959864     -0.164452744     -1.670395049
N      -0.041151673      0.115494180      2.753012915
H       0.161286070     -0.442522340     -0.620196035
H      -0.339641074     -0.140165482      3.817658560
H       0.650275981      0.468906056      1.939360932
H       0.670881236      0.467271262     -2.227098655
           6
  t=        77.50000    8    2
C      -0.045324702     -0.165286241     -1.680599014
N      -0.040496470      0.115876652      2.755543017
H       0.148289676     -0.458299574     -0.632526641
H      -0.342383201     -0.119182937      3.836164395
H       0.655968805      0.454984335      1.979668715
H       0.640446734      0.480598137     -2.187239444
           6
  t=        78.00000    8    2
C      -0.042546778     -0.166165276     -1.690442591
N      -0.039764056      0.116277762      2.758252755
H       0.133148185     -0.475112854     -0.646027125
H      -0.340573412     -0.095426863      3.843115125
H       0.656186191      0.438186024      2.029066581
H       0.610308209      0.495347368     -2.150532323
           6
  t=        78.50000    8    2
C      -0.039823857     -0.167283649     -1.699790162
N      -0.039061768      0.116644354      2.761326949
H       0.115935371     -0.493059736     -0.660618123
H      -0.334357104     -0.069139914      3.838318218
H       0.652554339      0.419471512      2.085160129
H       0.582757198      0.513944900     -2.118652478
           6
  t=        79.00000    8    2
C      -0.037320360     -0.168822459     -1.708555754
N      -0.038560694      0.116904923      2.764978824
H       0.096771571     -0.512250615     -0.676140432
H      -0.324105410     -0.040707938      3.822165027
H       0.647809274      0.400199712      2.144579372
H       0.559643402      0.538677863     -2.092766750
           6
  t=        79.50000    8    2
C      -0.035121116     -0.170891046     -1.716728504
N      -0.038506230      0.116969598      2.769431025
H       0.075816014     -0.532802511     -0.692362851
H      -0.310473197     -0.010655816      3.795827786
H       0.646003073      0.382125435      2.203046668
H       0.541830020      0.570983993     -2.073223812
           6
  t=        80.00000    8    2
C      -0.033209325     -0.173479577     -1.724376274
N      -0.039183686      0.116748090      2.774842973
H       0.053255273     -0.554826306     -0.709004756
H      -0.294494022      0.020360077      3.761623786
H       0.652122695      0.367143335      2.256022749
H       0.528941234      0.610873258     -2.059489306
           6
  t=        80.50000    8    2
C      -0.031484776     -0.176455033     -1.731622094
N      -0.040802227      0.116191028      2.781175222
H       0.029288510     -0.578408396     -0.725774361
H      -0.277698959      0.051594471      3.723528942
H       0.670597707      0.356671508      2.300077306
H       0.519592439      0.656861396     -2.050387669
           6
  t=        81.00000    8    2
C      -0.029808814     -0.179602736     -1.738606698
N      -0.043330193      0.115330915      2.788056872
H       0.004113100     -0.603587749     -0.742421203
H      -0.262186959      0.082343434      3.687631359
H       0.703083284      0.350951946      2.334276110
H       0.511939144      0.706441584     -2.044494128
           6
  t=        81.50000    8    2
C      -0.028047657     -0.182684925     -1.745455975
N      -0.046426010      0.114273669      2.794797404
H      -0.022085014     -0.630331158     -0.758793468
H      -0.250466564      0.112200797      3.661864149
H       0.747341994      0.348910875      2.360281126
H       0.504202571      0.756757913     -2.040462322
           6
  t=        82.00000    8    2
C      -0.026097207     -0.185487304     -1.752262638
N      -0.049563998      0.113136317      2.800626398
H      -0.049133112     -0.658510636     -0.774886334
H      -0.244861068      0.141324329      3.653989259
H       0.798395792      0.348757361      2.381033296
H       0.494967822      0.805137944     -2.037191555
           6
  t=        82.50000    8    2
C      -0.023889866     -0.187843173     -1.759081101
N      -0.052254720      0.111999529      2.805062738
H      -0.076865499     -0.687887842     -0.790867601
H      -0.246605456      0.170350189      3.667890051
H       0.850683275      0.348727765      2.399328423
H       0.483260363      0.849365101     -2.033860520
           6
  t=        83.00000    8    2
C      -0.021391290     -0.189639321     -1.765930767
N      -0.054185909      0.110921850      2.808138782
H      -0.105112463     -0.718110256     -0.807072381
H      -0.255350409      0.199802951      3.701108538
H       0.899520266      0.347477649      2.417165007
H       0.468497618      0.887745318     -2.029893140
           6
  t=        83.50000    8    2
C      -0.018593804     -0.190811792     -1.772803544
N      -0.055223372      0.109973101      2.810286025
H      -0.133689315     -0.748721885     -0.823967700
H      -0.269585766      0.229579811      3.746455031
H       0.941534982      0.344133566      2.435724368
H       0.450400641      0.919067192     -2.024905752
           6
  t=        84.00000    8    2
C      -0.015509941     -0.191337852     -1.779672616
N      -0.055342116      0.109236488      2.812050738
H      -0.162389988     -0.779187831     -0.842097062
H      -0.287473164      0.259014000      3.795751293
H       0.974543286      0.338200494      2.455580418
H       0.428911081      0.942530845     -2.018659888
           6
  t=        84.50000    8    2
C      -0.012167162     -0.191227938     -1.786500944
N      -0.054567885      0.108790252      2.813900349
H      -0.190987403     -0.808928303     -0.862017132
H      -0.307393659      0.287239012      3.842313885
H       0.997284052      0.329452769      2.476908458
H       0.404128727      0.957685830     -2.011026373
           6
  t=        85.00000    8    2
C      -0.008603920     -0.190519623     -1.793247902
N      -0.052950118      0.108694309      2.816171252
H      -0.219240296     -0.837356507     -0.884241890
H      -0.328101392      0.313456694      3.881535317
H       1.009197191      0.317851657      2.499630489
H       0.376271305      0.964397108     -2.001963433
           6
  t=        85.50000    8    2
C      -0.004866830     -0.189274612     -1.799873956
N      -0.050556092      0.108987028      2.819088541
H      -0.246904510     -0.863915032     -0.909199780
H      -0.348680732      0.337032839      3.910529528
H       1.010299610      0.303494547      2.523496313
H       0.345651948      0.962845688     -1.991504625
           6
  t=        86.00000    8    2
C      -0.001008676     -0.187579264     -1.806343364
N      -0.047475883      0.109687103      2.822801364
H      -0.273746493     -0.888107866     -0.937206453
H      -0.368457425      0.357496625      3.927606848
H       1.001165480      0.286589421      2.548117628
H       0.312668704      0.953566915     -1.979754234
           6
  t=        86.50000    8    2
C       0.002913184     -0.185548651     -1.812625355
N      -0.043833591      0.110796188      2.827412015
H      -0.299557197     -0.909527444     -0.968451047
H      -0.386924643      0.374512776      3.931868113
H       0.983008442      0.267446018      2.572969668
H       0.277799307      0.937525941     -1.966886857
           6
  t=        87.00000    8    2
C       0.006838667     -0.183333330     -1.818694523
N      -0.039802944      0.112300655      2.832994443
H      -0.324165482     -0.927878081     -1.002992061
H      -0.403699633      0.387860202      3.922966285
H       0.957855183      0.246472582      2.597372210
H       0.241592401      0.916221900     -1.953146726
           6
  t=        87.50000    8    2
C       0.010708087     -0.181126284     -1.824531351
N      -0.035623692      0.114172753      2.839602367
H      -0.347450914     -0.942997906     -1.040758494
H      -0.418515480      0.397431246      3.901017760
H       0.928765148      0.224160492      2.620465056
H       0.204643026      0.891792625     -1.938839828
           6
  t=        88.00000    8    2
C       0.014467790     -0.179164351     -1.830123935
N      -0.031608244      0.116372402      2.847265948
H      -0.369356480     -0.954881282     -1.081552953
H      -0.431256763      0.403260784      3.866648395
H       0.899958699      0.201030056      2.641207788
H       0.167537977      0.867054169     -1.924309793
           6
  t=        88.50000    8    2
C       0.018079059     -0.177714525     -1.835471725
N      -0.028116208      0.118850487      2.855972712
H      -0.389902092     -0.963702263     -1.125054799
H      -0.442060227      0.405597571      3.821179517
H       0.876564376      0.177513373      2.658458226
H       0.130762884      0.845361199     -1.909889623
           6
  t=        89.00000    8    2
C       0.021528654     -0.177034492     -1.840590620
N      -0.025468074      0.121550810      2.865626998
H      -0.409198419     -0.969837964     -1.170825323
H      -0.451513720      0.405034600      3.766966064
H       0.863619083      0.153796807      2.671197136
H       0.094589985      0.830160522     -1.895835297
           6
  t=        89.50000    8    2
C       0.024836066     -0.177306736     -1.845516892
N      -0.023797579      0.124401226      2.875989853
H      -0.427461293     -0.973884050     -1.218318744
H      -0.460991444      0.402709393      3.707863589
H       0.864352642      0.129743743      2.678895799
H       0.059005621      0.824222125     -1.882267436
           6
  t=        90.00000    8    2
C       0.028050164     -0.178568432     -1.850305363
N      -0.022913834      0.127286925      2.886627730
H      -0.445019932     -0.976650432     -1.266908914
H      -0.473085581      0.400528040      3.649606531
H       0.878704275      0.105041663      2.681850035
H       0.023757824      0.828800189     -1.869165836
           6
  t=        90.50000    8    2
C       0.031233220     -0.180678276     -1.855019548
N      -0.022288562      0.130025640      2.896936056
H      -0.462307862     -0.979119016     -1.315941030
H      -0.491815297      0.401196704      3.599451921
H       0.903354336      0.079514864      2.681208184
H      -0.011462612      0.843196145     -1.856434277
           6
  t=        91.00000    8    2
C       0.034439638     -0.183346877     -1.859716878
N      -0.021227010      0.132396116      2.906311295
H      -0.479822192     -0.982348250     -1.364810974
H      -0.521799808      0.407613988      3.564123027
H       0.933271643      0.053336529      2.678635791
H      -0.046809084      0.865025149     -1.843996107
           6
  t=        91.50000    8    2
C       0.037699561     -0.186214827     -1.864435340
N      -0.019171534      0.134242117      2.914433190
H      -0.498042398     -0.987324840     -1.413059747
H      -0.565810639      0.421454791      3.546345462
H       0.963482784      0.026999750      2.675856928
H      -0.082164206      0.890997276     -1.831857947
           6
  t=        92.00000    8    2
C       0.041011012     -0.188936554     -1.869186130
N      -0.015946202      0.135565907      2.921408581
H      -0.517316387     -0.994788866     -1.460454118
H      -0.622383101      0.442036653      3.543172437
H       0.990080836      0.001152677      2.674330251
H      -0.117158749      0.917740825     -1.820116071
           6
  t=        92.50000    8    2
C       0.044338152     -0.191238278     -1.873953553
N      -0.011736938      0.136503549      2.927611558
H      -0.537744054     -1.005082422     -1.507019497
H      -0.686310335      0.466816358      3.548323646
H       1.010442549     -0.023554564      2.675131730
H      -0.151266401      0.942340582     -1.808925337
           6
  t=        93.00000    8    2
C       0.047613403     -0.192942003     -1.878701214
N      -0.006887933      0.137227589      2.933430875
H      -0.559101650     -1.018075743     -1.553005798
H      -0.751300637      0.492832543      3.555681510
H       1.023056455     -0.046559983      2.678969170
H      -0.183904206      0.962549401     -1.798460890
           6
  t=        93.50000    8    2
C       0.050743270     -0.193962733     -1.883382153
N      -0.001738418      0.137881555      2.939147628
H      -0.580839363     -1.033198334     -1.598797107
H      -0.812007287      0.517659950      3.560936441
H       1.027284971     -0.067433729      2.686238042
H      -0.214504492      0.976785908     -1.788889324
           6
  t=        94.00000    8    2
C       0.053617745     -0.194290595     -1.887949679
N       0.003431885      0.138566755      2.944932793
H      -0.602152695     -1.049558616     -1.644800754
H      -0.864611931      0.539616880      3.561569161
H       1.023190264     -0.085901983      2.697074655
H      -0.242555842      0.984041278     -1.780351874
           6
  t=        94.50000    8    2
C       0.056121639     -0.193968530     -1.892365957
N       0.008394304      0.139354139      2.950883860
H      -0.622097557     -1.066103732     -1.691354245
H      -0.906618237      0.557621674      3.556303686
H       1.011445917     -0.101868337      2.711394924
H      -0.267623530      0.983773337     -1.772956036
           6
  t=        95.00000    8    2
C       0.058145503     -0.193072827     -1.896606978
N       0.012945033      0.140300590      2.957058598
H      -0.639709298     -1.081769449     -1.738671228
H      -0.936470903      0.570995780      3.544614369
H       0.993320398     -0.115443120      2.728918670
H      -0.289360989      0.975824797     -1.766770862
           6
  t=        95.50000    8    2
C       0.059594486     -0.191700161     -1.900664183
N       0.016881677      0.141462110      2.963496179
H      -0.654097179     -1.095589475     -1.786827000
H      -0.953251077      0.579318602      3.526413546
H       0.970698896     -0.126981699      2.749188670
H      -0.307521509      0.960378281     -1.761822332
           6
  t=        96.00000    8    2
C       0.060394904     -0.189961701     -1.904544043
N       0.019991219      0.142902029      2.970226767
H      -0.664504833     -1.106760189     -1.835771178
H      -0.956507257      0.582350108      3.501890766
H       0.946082037     -0.137121204      2.771598156
H      -0.321976488      0.937951067     -1.758085683
           6
  t=        96.50000    8    2
C       0.060499243     -0.187983395     -1.908266881
N       0.022056837      0.144691952      2.977270899
H      -0.670340962     -1.114669259     -1.885354171
H      -0.946223192      0.580018348      3.471460863
H       0.922459638     -0.146781532      2.795451212
H      -0.332744954      0.909427413     -1.755472795
           6
  t=        97.00000    8    2
C       0.059890688     -0.185910683     -1.911865868
N       0.022893064      0.146901297      2.984629177
H      -0.671190799     -1.118902979     -1.935357678
H      -0.922934833      0.572475978      3.435795261
H       0.902939699     -0.157076862      2.820074404
H      -0.340036574      0.876122352     -1.753813360
           6
  t=        97.50000    8    2
C       0.058587780     -0.183915208     -1.915386544
N       0.022415376      0.149570737      2.992263533
H      -0.666818479     -1.119245291     -1.985524655
H      -0.888038864      0.560245769      3.395930200
H       0.890090472     -0.169092514      2.844968521
H      -0.344305137      0.839860969     -1.752830286
           6
  t=        98.00000    8    2
C       0.056648661     -0.182199634     -1.918886529
N       0.020736501      0.152669296      3.000074763
H      -0.657167692     -1.115677579     -2.035587974
H      -0.844369427      0.544491196      3.353451088
H       0.885179253     -0.183559820      2.869935773
H      -0.346298667      0.803035994     -1.752113856
           6
  t=        98.50000    8    2
C       0.054172616     -0.180994184     -1.922434228
N       0.018262639      0.156044480      3.007885500
H      -0.642364929     -1.108383967     -2.085299499
H      -0.797088476      0.527435466      3.310714709
H       0.887725506     -0.200582456      2.895093310
H      -0.347074245      0.768572026     -1.751107278
           6
  t=        99.00000    8    2
C       0.051294485     -0.180536183     -1.926104417
N       0.015744920      0.159387286      3.015443795
H      -0.622725754     -1.097763972     -2.134461796
H      -0.754603063      0.512805436      3.270921802
H       0.895702605     -0.219594147      2.920749848
H      -0.347924632      0.739694652     -1.749126400
           6
  t=        99.50000    8    2
C       0.048167764     -0.181026139     -1.929968104
N       0.014198243      0.162257688      3.022475280
H      -0.598761651     -1.084447975     -2.182964875
H      -0.728190519      0.505701623      3.237567660
H       0.906289478     -0.239582463      2.947228994
H      -0.350168888      0.719422607     -1.745442502
           6
  t=       100.00000    8    2
C       0.044936866     -0.182566329     -1.934076105
N       0.014547335      0.164241530      3.028806366
H      -0.571179279     -1.069306614     -2.230827126
H      -0.727941408      0.510765967      3.212852425
H       0.916729724     -0.259435895      2.974746167
H      -0.354821461      0.709845285     -1.739435767
